           3
  t=         0.00000    5    3
H      -0.257530487     -0.079240260     -0.684272564
H      -0.111417955      0.166656774      0.639563535
O       0.377067418     -0.100350499     -0.005573051
           3
  t=         0.25000    5    3
H      -0.264490555     -0.078010923     -0.686974674
H      -0.121982899      0.171088532      0.647345008
O       0.378171672     -0.100707212     -0.005893104
           3
  t=         0.50000    5    3
H      -0.280863001     -0.076198404     -0.698484195
H      -0.142500146      0.180606378      0.666624558
O       0.380496077     -0.101421141     -0.006382694
           3
  t=         0.75000    5    3
H      -0.305937009     -0.073831367     -0.718062997
H      -0.171876882      0.194620166      0.695993721
O       0.383926988     -0.102453295     -0.006999584
           3
  t=         1.00000    5    3
H      -0.338715102     -0.070961786     -0.744730963
H      -0.208753972      0.212415818      0.733792412
O       0.388315917     -0.103755405     -0.007700928
           3
  t=         1.25000    5    3
H      -0.378127342     -0.067634624     -0.777387044
H      -0.251827239      0.233299776      0.778388304
O       0.393513273     -0.105280938     -0.008453252
           3
  t=         1.50000    5    3
H      -0.423096453     -0.063938353     -0.815124176
H      -0.299875619      0.256676765      0.828504543
O       0.399374240     -0.106986813     -0.009233256
           3
  t=         1.75000    3    2
H      -0.472689630     -0.059963288     -0.857220953
H      -0.351903971      0.282080397      0.883187623
O       0.405777339     -0.108837950     -0.010026315
           3
  t=         2.00000    3    2
H      -0.523582944     -0.056220467     -0.901989656
H      -0.404852324      0.308311777      0.940599392
O       0.412320327     -0.110726610     -0.010822951
           3
  t=         2.25000    3    2
H      -0.577782578     -0.052355709     -0.950235459
H      -0.460432193      0.335973455      1.001451596
O       0.419237453     -0.112713075     -0.011617276
           3
  t=         2.50000    3    2
H      -0.634858802     -0.048428293     -1.001708441
H      -0.518211527      0.364883355      1.065425147
O       0.426474416     -0.114782137     -0.012404933
           3
  t=         2.75000    5    3
H      -0.694485072     -0.044485682     -1.056229978
H      -0.577869461      0.394909158      1.132296563
O       0.433990424     -0.116922469     -0.013183095
           3
  t=         3.00000    5    3
H      -0.755062082     -0.040619509     -1.112270382
H      -0.638276818      0.425467371      1.200730244
O       0.441613558     -0.119091531     -0.013963992
           3
  t=         3.25000    7    4
H      -0.817734671     -0.036798593     -1.171084663
H      -0.700150000      0.456967189      1.271755273
O       0.449461093     -0.121317071     -0.014733387
           3
  t=         3.50000    7    4
H      -0.881278960     -0.033019589     -1.231160276
H      -0.762730802      0.488933257      1.344085712
O       0.457408139     -0.123569348     -0.015505560
           3
  t=         3.75000    1    1
H      -0.946592064     -0.029309824     -1.293721599
H      -0.826521645      0.521713994      1.418729394
O       0.465542880     -0.125868594     -0.016266866
           3
  t=         4.00000    1    1
H      -1.013034224     -0.025628619     -1.357796502
H      -0.891193479      0.555051781      1.494889450
O       0.473804273     -0.128201139     -0.017028348
           3
  t=         4.25000    7    4
H      -1.080841465     -0.022045984     -1.423999802
H      -0.956919851      0.589127368      1.573195077
O       0.482218123     -0.130573962     -0.017790912
           3
  t=         4.50000    7    4
H      -1.148882819     -0.018529112     -1.490795842
H      -1.022697892      0.623317972      1.651972871
O       0.490649981     -0.132949889     -0.018545879
           3
  t=         4.75000    7    4
H      -1.218035782     -0.015095072     -1.559336946
H      -1.089384492      0.658136397      1.732562734
O       0.499209127     -0.135360155     -0.019305068
           3
  t=         5.00000    7    4
H      -1.288240228     -0.011734402     -1.629505498
H      -1.156905324      0.693530432      1.814812476
O       0.507887090     -0.137802066     -0.020066300
           3
  t=         5.25000    9    5
H      -1.359435207     -0.008439246     -1.701190370
H      -1.225191099      0.729452141      1.898583656
O       0.516675665     -0.140273098     -0.020827855
           3
  t=         5.50000    9    5
H      -1.431123041     -0.005170258     -1.773599764
H      -1.293811274      0.765606308      1.983028230
O       0.525516364     -0.142757127     -0.021586188
           3
  t=         5.75000    9    5
H      -1.503679904     -0.001954867     -1.847321371
H      -1.363076540      0.802205921      2.068757967
O       0.534452466     -0.145265847     -0.022342817
           3
  t=         6.00000    9    5
H      -1.577048180      0.001211550     -1.922263197
H      -1.432935873      0.839216048      2.155672621
O       0.543477126     -0.147797347     -0.023097222
           3
  t=         6.25000    9    5
H      -1.651173469      0.004332993     -1.998340087
H      -1.503343377      0.876605258      2.243681972
O       0.552584025     -0.150349899     -0.023849083
           3
  t=         6.50000    9    5
H      -1.726004997      0.007412964     -2.075473632
H      -1.574257742      0.914345238      2.332704721
O       0.561767360     -0.152921940     -0.024598218
           3
  t=         6.75000    9    5
H      -1.801495698      0.010454561     -2.153591852
H      -1.645641734      0.952410448      2.422667481
O       0.571021820     -0.155512055     -0.025344539
           3
  t=         7.00000    9    5
H      -1.877602123      0.013460542     -2.232628769
H      -1.717461731      0.990777799      2.513503874
O       0.580342548     -0.158118964     -0.026088021
           3
  t=         7.25000    9    5
H      -1.954284252      0.016433380     -2.312523932
H      -1.789687311      1.029426383      2.605153751
O       0.589725106     -0.160741505     -0.026828682
           3
  t=         7.50000    9    5
H      -2.031505261      0.019375298     -2.393221953
H      -1.862290889      1.068337224      2.697562490
O       0.599165436     -0.163378621     -0.027566572
           3
  t=         7.75000    9    5
H      -2.109231282      0.022288307     -2.474672050
H      -1.935247406      1.107493067      2.790680396
O       0.608659824     -0.166029354     -0.028301757
           3
  t=         8.00000    9    5
H      -2.187431160      0.025174234     -2.556827629
H      -2.008534046      1.146878189      2.884462166
O       0.618204871     -0.168692827     -0.029034320
           3
  t=         8.25000    9    5
H      -2.266076224      0.028034738     -2.639645897
H      -2.082129996      1.186478236      2.978866417
O       0.627797458     -0.171368241     -0.029764350
           3
  t=         8.50000    9    5
H      -2.345140070      0.030871337     -2.723087503
H      -2.156016232      1.226280077      3.073855279
O       0.637434722     -0.174054863     -0.030491940
           3
  t=         8.75000    9    5
H      -2.424598359      0.033685418     -2.807116222
H      -2.230175328      1.266271680      3.169394030
O       0.647114033     -0.176752022     -0.031217184
           3
  t=         9.00000    9    5
H      -2.504428630      0.036478256     -2.891698658
H      -2.304591294      1.306441993      3.265450774
O       0.656832967     -0.179459104     -0.031940177
           3
  t=         9.25000    9    5
H      -2.584610133      0.039251022     -2.976803986
H      -2.379249429      1.346780852      3.361996162
O       0.666589290     -0.182175541     -0.032661012
           3
  t=         9.50000    9    5
H      -2.665123677      0.042004795     -3.062403708
H      -2.454136193      1.387278891      3.459003137
O       0.676380941     -0.184900811     -0.033379780
           3
  t=         9.75000    9    5
H      -2.745951486      0.044740573     -3.148471449
H      -2.529239095      1.427927462      3.556446718
O       0.686206012     -0.187634432     -0.034096569
           3
  t=        10.00000    9    5
H      -2.827077081      0.047459279     -3.234982759
H      -2.604546588      1.468718572      3.654303797
O       0.696062738     -0.190375959     -0.034811463
           3
  t=        10.25000    9    5
H      -2.908485158      0.050161769     -3.321914944
H      -2.680047985      1.509644815      3.752552968
O       0.705949480     -0.193124978     -0.035524544
           3
  t=        10.50000    9    5
H      -2.990161493      0.052848836     -3.409246913
H      -2.755733377      1.550699323      3.851174371
O       0.715864718     -0.195881107     -0.036235888
           3
  t=        10.75000    9    5
H      -3.072092846      0.055521220     -3.496959035
H      -2.831593562      1.591875716      3.950149550
O       0.725807038     -0.198643992     -0.036945571
           3
  t=        11.00000    9    5
H      -3.154266878      0.058179609     -3.585033018
H      -2.907619980      1.633168059      4.049461333
O       0.735775124     -0.201413300     -0.037653662
           3
  t=        11.25000    9    5
H      -3.236672076      0.060824646     -3.673451793
H      -2.983804663      1.674570820      4.149093715
O       0.745767747     -0.204188724     -0.038360228
           3
  t=        11.50000    9    5
H      -3.319297683      0.063456931     -3.762199416
H      -3.060140177      1.716078840      4.249031762
O       0.755783761     -0.206969977     -0.039065334
           3
  t=        11.75000    9    5
H      -3.402133642      0.066077025     -3.851260971
H      -3.136619579      1.757687299      4.349261519
O       0.765822096     -0.209756791     -0.039769040
           3
  t=        12.00000    9    5
H      -3.485170531      0.068685455     -3.940622491
H      -3.213236378      1.799391687      4.449769931
O       0.775881749     -0.212548914     -0.040471403
           3
  t=        12.25000    9    5
H      -3.568399521      0.071282714     -4.030270881
H      -3.289984495      1.841187783      4.550544766
O       0.785961780     -0.215346112     -0.041172478
           3
  t=        12.50000    9    5
H      -3.651812324      0.073869267     -4.120193848
H      -3.366858233      1.883071624      4.651574555
O       0.796061308     -0.218148163     -0.041872316
           3
  t=        12.75000    9    5
H      -3.735401155      0.076445549     -4.210379844
H      -3.443852243      1.925039494      4.752848525
O       0.806179505     -0.220954862     -0.042570967
           3
  t=        13.00000    9    5
H      -3.819158691      0.079011971     -4.300818003
H      -3.520961500      1.967087899      4.854356553
O       0.816315594     -0.223766015     -0.043268476
           3
  t=        13.25000    9    5
H      -3.903078039      0.081568920     -4.391498097
H      -3.598181277      2.009213550      4.956089109
O       0.826468843     -0.226581437     -0.043964889
           3
  t=        13.50000    9    5
H      -3.987152702      0.084116760     -4.482410481
H      -3.675507122      2.051413350      5.058037216
O       0.836638561     -0.229400958     -0.044660248
           3
  t=        13.75000    9    5
H      -4.071376552      0.086655837     -4.573546058
H      -3.752934839      2.093684379      5.160192408
O       0.846824098     -0.232224415     -0.045354591
           3
  t=        14.00000    9    5
H      -4.155743803      0.089186477     -4.664896236
H      -3.830460467      2.136023881      5.262546695
O       0.857024840     -0.235051654     -0.046047958
           3
  t=        14.25000    9    5
H      -4.240248986      0.091708988     -4.756452891
H      -3.908080266      2.178429251      5.365092525
O       0.867240206     -0.237882532     -0.046740383
           3
  t=        14.50000    9    5
H      -4.324886929      0.094223663     -4.848208339
H      -3.985790700      2.220898027      5.467822755
O       0.877469649     -0.240716911     -0.047431902
           3
  t=        14.75000    9    5
H      -4.409652733      0.096730778     -4.940155303
H      -4.063588422      2.263427877      5.570730626
O       0.887712648     -0.243554661     -0.048122546
           3
  t=        15.00000    9    5
H      -4.494541760      0.099230596     -5.032286884
H      -4.141470262      2.306016594      5.673809729
O       0.897968711     -0.246395662     -0.048812347
           3
  t=        15.25000    9    5
H      -4.579549606      0.101723368     -5.124596540
H      -4.219433214      2.348662084      5.777053991
O       0.908237371     -0.249239795     -0.049501334
           3
  t=        15.50000    9    5
H      -4.664672097      0.104209329     -5.217078058
H      -4.297474427      2.391362358      5.880457646
O       0.918518187     -0.252086951     -0.050189535
           3
  t=        15.75000    9    5
H      -4.749905263      0.106688707     -5.309725538
H      -4.375591194      2.434115531      5.984015216
O       0.928810736     -0.254937026     -0.050876978
           3
  t=        16.00000    9    5
H      -4.835245334      0.109161716     -5.402533366
H      -4.453780942      2.476919807      6.087721496
O       0.939114620     -0.257789919     -0.051563686
           3
  t=        16.25000    9    5
H      -4.920688722      0.111628561     -5.495496205
H      -4.532041222      2.519773481      6.191571531
O       0.949429458     -0.260645536     -0.052249686
           3
  t=        16.50000    9    5
H      -5.006232011      0.114089436     -5.588608968
H      -4.610369707      2.562674927      6.295560607
O       0.959754889     -0.263503788     -0.052935000
           3
  t=        16.75000    9    5
H      -5.091871978      0.116544518     -5.681866780
H      -4.688764191      2.605622617      6.399684205
O       0.970090569     -0.266364588     -0.053619651
           3
  t=        17.00000    9    5
H      -5.177605524      0.118993985     -5.775265020
H      -4.767222559      2.648615071      6.503938040
O       0.980436171     -0.269227854     -0.054303660
           3
  t=        17.25000    9    5
H      -5.263429656      0.121438017     -5.868799311
H      -4.845742781      2.691650868      6.608318051
O       0.990791378     -0.272093510     -0.054987046
           3
  t=        17.50000    9    5
H      -5.349341549      0.123876776     -5.962465443
H      -4.924322931      2.734728664      6.712820336
O       1.001155891     -0.274961479     -0.055669830
           3
  t=        17.75000    9    5
H      -5.435338503      0.126310417     -6.056259394
H      -5.002961170      2.777847175      6.817441168
O       1.011529424     -0.277831691     -0.056352029
           3
  t=        18.00000    9    5
H      -5.521417941      0.128739089     -6.150177319
H      -5.081655740      2.821005174      6.922176982
O       1.021911703     -0.280704079     -0.057033662
           3
  t=        18.25000    9    5
H      -5.607577395      0.131162934     -6.244215538
H      -5.160404961      2.864201487      7.027024371
O       1.032302467     -0.283578576     -0.057714746
           3
  t=        18.50000    9    5
H      -5.693814504      0.133582089     -6.338370532
H      -5.239207225      2.907434992      7.131980071
O       1.042701467     -0.286455121     -0.058395296
           3
  t=        18.75000    9    5
H      -5.780127009      0.135996685     -6.432638927
H      -5.318060992      2.950704614      7.237040959
O       1.053108463     -0.289333655     -0.059075328
           3
  t=        19.00000    9    5
H      -5.866512744      0.138406846     -6.527017492
H      -5.396964787      2.994009321      7.342204040
O       1.063523224     -0.292214120     -0.059754858
           3
  t=        19.25000    9    5
H      -5.952969633      0.140812693     -6.621503129
H      -5.475917196      3.037348127      7.447466444
O       1.073945533     -0.295096461     -0.060433900
           3
  t=        19.50000    9    5
H      -6.039495686      0.143214343     -6.716092866
H      -5.554916863      3.080720083      7.552825417
O       1.084375176     -0.297980627     -0.061112467
           3
  t=        19.75000    9    5
H      -6.126088992      0.145611906     -6.810783848
H      -5.633962486      3.124124281      7.658278317
O       1.094811954     -0.300866567     -0.061790574
           3
  t=        20.00000    9    5
H      -6.212747717      0.148005489     -6.905573337
H      -5.713052816      3.167559846      7.763822607
O       1.105255670     -0.303754233     -0.062468231
           3
  t=        20.25000    9    5
H      -6.299470098      0.150395194     -7.000458700
H      -5.792186654      3.211025942      7.869455847
O       1.115706138     -0.306643578     -0.063145453
           3
  t=        20.50000    9    5
H      -6.386254444      0.152781122     -7.095437406
H      -5.871362846      3.254521760      7.975175693
O       1.126163179     -0.309534557     -0.063822250
           3
  t=        20.75000    9    5
H      -6.473099126      0.155163366     -7.190507022
H      -5.950580282      3.298046526      8.080979893
O       1.136626621     -0.312427129     -0.064498634
           3
  t=        21.00000    9    5
H      -6.560002578      0.157542018     -7.285665206
H      -6.029837897      3.341599493      8.186866277
O       1.147096298     -0.315321251     -0.065174615
           3
  t=        21.25000    9    5
H      -6.646963292      0.159917168     -7.380909704
H      -6.109134663      3.385179945      8.292832757
O       1.157572049     -0.318216884     -0.065850205
           3
  t=        21.50000    9    5
H      -6.733979817      0.162288899     -7.476238346
H      -6.188469592      3.428787189      8.398877324
O       1.168053722     -0.321113990     -0.066525413
           3
  t=        21.75000    9    5
H      -6.821050755      0.164657295     -7.571649040
H      -6.267841732      3.472420560      8.504998040
O       1.178541168     -0.324012532     -0.067200249
           3
  t=        22.00000    9    5
H      -6.908174760      0.167022435     -7.667139769
H      -6.347250165      3.516079414      8.611193038
O       1.189034244     -0.326912475     -0.067874723
           3
  t=        22.25000    9    5
H      -6.995350532      0.169384394     -7.762708592
H      -6.426694005      3.559763135      8.717460518
O       1.199532813     -0.329813784     -0.068548843
           3
  t=        22.50000    9    5
H      -7.082576820      0.171743247     -7.858353631
H      -6.506172401      3.603471123      8.823798742
O       1.210036742     -0.332716426     -0.069222619
           3
  t=        22.75000    9    5
H      -7.169852413      0.174099065     -7.954073077
H      -6.585684528      3.647202804      8.930206036
O       1.220545904     -0.335620370     -0.069896058
           3
  t=        23.00000    9    5
H      -7.257176147      0.176451917     -8.049865184
H      -6.665229592      3.690957620      9.036680781
O       1.231060174     -0.338525585     -0.070569168
           3
  t=        23.25000    9    5
H      -7.344546894      0.178801870     -8.145728263
H      -6.744806825      3.734735035      9.143221414
O       1.241579433     -0.341432042     -0.071241959
           3
  t=        23.50000    9    5
H      -7.431963567      0.181148988     -8.241660685
H      -6.824415485      3.778534530      9.249826424
O       1.252103566     -0.344339710     -0.071914436
           3
  t=        23.75000    9    5
H      -7.519425113      0.183493334     -8.337660873
H      -6.904054857      3.822355603      9.356494353
O       1.262632462     -0.347248564     -0.072586608
           3
  t=        24.00000    9    5
H      -7.606930517      0.185834967     -8.433727305
H      -6.983724247      3.866197768      9.463223790
O       1.273166012     -0.350158576     -0.073258482
           3
  t=        24.25000    9    5
H      -7.694478796      0.188173947     -8.529858506
H      -7.063422985      3.910060558      9.570013368
O       1.283704114     -0.353069720     -0.073930064
           3
  t=        24.50000    9    5
H      -7.782068999      0.190510330     -8.626053050
H      -7.143150424      3.953943518      9.676861769
O       1.294246665     -0.355981971     -0.074601362
           3
  t=        24.75000    9    5
H      -7.869700205      0.192844171     -8.722309559
H      -7.222905936      3.997846208      9.783767713
O       1.304793569     -0.358895306     -0.075272380
           3
  t=        25.00000    9    5
H      -7.957371525      0.195175522     -8.818626695
H      -7.302688915      4.041768204      9.890729962
O       1.315344731     -0.361809700     -0.075943127
           3
  t=        25.25000    9    5
H      -8.045082095      0.197504436     -8.915003165
H      -7.382498772      4.085709094      9.997747319
O       1.325900059     -0.364725130     -0.076613607
           3
  t=        25.50000    9    5
H      -8.132831080      0.199830961     -9.011437714
H      -7.462334937      4.129668478     10.104818621
O       1.336459466     -0.367641576     -0.077283826
           3
  t=        25.75000    9    5
H      -8.220617671      0.202155148     -9.107929129
H      -7.542196859      4.173645971     10.211942743
O       1.347022865     -0.370559015     -0.077953791
           3
  t=        26.00000    9    5
H      -8.308441083      0.204477041     -9.204476231
H      -7.622084003      4.217641197     10.319118594
O       1.357590174     -0.373477428     -0.078623506
           3
  t=        26.25000    9    5
H      -8.396300556      0.206796688     -9.301077877
H      -7.701995849      4.261653792     10.426345116
O       1.368161311     -0.376396793     -0.079292978
           3
  t=        26.50000    9    5
H      -8.484195351      0.209114133     -9.397732961
H      -7.781931896      4.305683405     10.533621282
O       1.378736198     -0.379317091     -0.079962210
           3
  t=        26.75000    9    5
H      -8.572124753      0.211429417     -9.494440406
H      -7.861891654      4.349729692     10.640946096
O       1.389314760     -0.382238304     -0.080631208
           3
  t=        27.00000    9    5
H      -8.660088067      0.213742584     -9.591199171
H      -7.941874650      4.393792323     10.748318591
O       1.399896923     -0.385160414     -0.081299977
           3
  t=        27.25000    9    5
H      -8.748084620      0.216053673     -9.688008240
H      -8.021880424      4.437870974     10.855737829
O       1.410482616     -0.388083402     -0.081968522
           3
  t=        27.50000    9    5
H      -8.836113756      0.218362724     -9.784866632
H      -8.101908530      4.481965333     10.963202899
O       1.421071769     -0.391007251     -0.082636846
           3
  t=        27.75000    9    5
H      -8.924174840      0.220669775     -9.881773391
H      -8.181958534      4.526075095     11.070712914
O       1.431664314     -0.393931945     -0.083304955
           3
  t=        28.00000    9    5
H      -9.012267254      0.222974864     -9.978727587
H      -8.262030014      4.570199965     11.178267015
O       1.442260187     -0.396857467     -0.083972853
           3
  t=        28.25000    9    5
H      -9.100390399      0.225278027    -10.075728319
H      -8.342122561      4.614339656     11.285864365
O       1.452859324     -0.399783801     -0.084640544
           3
  t=        28.50000    9    5
H      -9.188543690      0.227579298    -10.172774710
H      -8.422235778      4.658493890     11.393504152
O       1.463461662     -0.402710933     -0.085308031
           3
  t=        28.75000    9    5
H      -9.276726561      0.229878713    -10.269865906
H      -8.502369276      4.702662393     11.501185584
O       1.474067143     -0.405638847     -0.085975320
           3
  t=        29.00000    9    5
H      -9.364938461      0.232176304    -10.367001079
H      -8.582522680      4.746844903     11.608907894
O       1.484675706     -0.408567529     -0.086642413
           3
  t=        29.25000    9    5
H      -9.453178852      0.234472105    -10.464179421
H      -8.662695623      4.791041163     11.716670332
O       1.495287296     -0.411496964     -0.087309315
           3
  t=        29.50000    9    5
H      -9.541447214      0.236766146    -10.561400147
H      -8.742887750      4.835250922     11.824472171
O       1.505901857     -0.414427138     -0.087976029
           3
  t=        29.75000    9    5
H      -9.629743037      0.239058459    -10.658662492
H      -8.823098713      4.879473938     11.932312703
O       1.516519335     -0.417358040     -0.088642558
           3
  t=        30.00000    9    5
H      -9.718065828      0.241349073    -10.755965712
H      -8.903328175      4.923709974     12.040191237
O       1.527139678     -0.420289654     -0.089308907
           3
  t=        30.25000    9    5
H      -9.806415106      0.243638018    -10.853309083
H      -8.983575807      4.967958799     12.148107103
O       1.537762835     -0.423221969     -0.089975077
           3
  t=        30.50000    9    5
H      -9.894790401      0.245925323    -10.950691899
H      -9.063841289      5.012220189     12.256059644
O       1.548388756     -0.426154973     -0.090641074
           3
  t=        30.75000    9    5
H      -9.983191257      0.248211014    -11.048113472
H      -9.144124310      5.056493924     12.364048225
O       1.559017392     -0.429088652     -0.091306899
           3
  t=        31.00000    9    5
H     -10.071617229      0.250495120    -11.145573133
H      -9.224424566      5.100779792     12.472072224
O       1.569648697     -0.432022997     -0.091972556
           3
  t=        31.25000    9    5
H     -10.160067884      0.252777666    -11.243070228
H      -9.304741760      5.145077584     12.580131036
O       1.580282625     -0.434957994     -0.092638047
           3
  t=        31.50000    9    5
H     -10.248542799      0.255058679    -11.340604121
H      -9.385075604      5.189387099     12.688224069
O       1.590919130     -0.437893634     -0.093303377
           3
  t=        31.75000    9    5
H     -10.337041562      0.257338183    -11.438174191
H      -9.465425817      5.233708139     12.796350750
O       1.601558169     -0.440829904     -0.093968546
           3
  t=        32.00000    9    5
H     -10.425563772      0.259616203    -11.535779833
H      -9.545792124      5.278040511     12.904510516
O       1.612199700     -0.443766795     -0.094633560
           3
  t=        32.25000    9    5
H     -10.514109037      0.261892763    -11.633420458
H      -9.626174258      5.322384028     13.012702820
O       1.622843681     -0.446704296     -0.095298419
           3
  t=        32.50000    9    5
H     -10.602676975      0.264167887    -11.731095488
H      -9.706571958      5.366738505     13.120927129
O       1.633490071     -0.449642398     -0.095963127
           3
  t=        32.75000    9    5
H     -10.691267212      0.266441596    -11.828804362
H      -9.786984968      5.411103765     13.229182920
O       1.644138830     -0.452581089     -0.096627686
           3
  t=        33.00000    9    5
H     -10.779879386      0.268713915    -11.926546531
H      -9.867413040      5.455479633     13.337469685
O       1.654789921     -0.455520362     -0.097292099
           3
  t=        33.25000    9    5
H     -10.868513141      0.270984863    -12.024321460
H      -9.947855932      5.499865937     13.445786927
O       1.665443306     -0.458460205     -0.097956368
           3
  t=        33.50000    9    5
H     -10.957168131      0.273254463    -12.122128627
H     -10.028313407      5.544262513     13.554134162
O       1.676098947     -0.461400611     -0.098620495
           3
  t=        33.75000    9    5
H     -11.045844017      0.275522735    -12.219967520
H     -10.108785233      5.588669198     13.662510916
O       1.686756810     -0.464341570     -0.099284484
           3
  t=        34.00000    9    5
H     -11.134540468      0.277789700    -12.317837641
H     -10.189271185      5.633085832     13.770916727
O       1.697416858     -0.467283074     -0.099948336
           3
  t=        34.25000    9    5
H     -11.223257162      0.280055377    -12.415738503
H     -10.269771041      5.677512261     13.879351142
O       1.708079058     -0.470225114     -0.100612053
           3
  t=        34.50000    9    5
H     -11.311993784      0.282319786    -12.513669630
H     -10.350284587      5.721948333     13.987813720
O       1.718743376     -0.473167681     -0.101275637
           3
  t=        34.75000    9    5
H     -11.400750024      0.284582946    -12.611630557
H     -10.430811610      5.766393901     14.096304029
O       1.729409779     -0.476110768     -0.101939092
           3
  t=        35.00000    9    5
H     -11.489525583      0.286844875    -12.709620830
H     -10.511351907      5.810848819     14.204821649
O       1.740078236     -0.479054367     -0.102602418
           3
  t=        35.25000    9    5
H     -11.578320166      0.289105592    -12.807640004
H     -10.591905274      5.855312947     14.313366166
O       1.750748715     -0.481998470     -0.103265617
           3
  t=        35.50000    9    5
H     -11.667133484      0.291365114    -12.905687645
H     -10.672471516      5.899786146     14.421937178
O       1.761421186     -0.484943069     -0.103928693
           3
  t=        35.75000    9    5
H     -11.755965257      0.293623459    -13.003763327
H     -10.753050440      5.944268281     14.530534290
O       1.772095619     -0.487888156     -0.104591646
           3
  t=        36.00000    9    5
H     -11.844815209      0.295880643    -13.101866637
H     -10.833641857      5.988759219     14.639157117
O       1.782771984     -0.490833726     -0.105254479
           3
  t=        36.25000    9    5
H     -11.933683072      0.298136683    -13.199997167
H     -10.914245585      6.033258832     14.747805282
O       1.793450254     -0.493779769     -0.105917193
           3
  t=        36.50000    9    5
H     -12.022568582      0.300391596    -13.298154520
H     -10.994861442      6.077766993     14.856478415
O       1.804130400     -0.496726281     -0.106579790
           3
  t=        36.75000    9    5
H     -12.111471482      0.302645397    -13.396338306
H     -11.075489252      6.122283578     14.965176157
O       1.814812394     -0.499673253     -0.107242272
           3
  t=        37.00000    9    5
H     -12.200391519      0.304898102    -13.494548145
H     -11.156128843      6.166808465     15.073898152
O       1.825496211     -0.502620679     -0.107904641
           3
  t=        37.25000    9    5
H     -12.289328447      0.307149727    -13.592783665
H     -11.236780047      6.211341537     15.182644056
O       1.836181824     -0.505568553     -0.108566899
           3
  t=        37.50000    9    5
H     -12.378282024      0.309400285    -13.691044500
H     -11.317442698      6.255882677     15.291413530
O       1.846869207     -0.508516868     -0.109229046
           3
  t=        37.75000    9    5
H     -12.467252015      0.311649793    -13.789330294
H     -11.398116634      6.300431771     15.400206243
O       1.857558335     -0.511465618     -0.109891085
           3
  t=        38.00000    9    5
H     -12.556238188      0.313898264    -13.887640696
H     -11.478801697      6.344988709     15.509021869
O       1.868249184     -0.514414797     -0.110553017
           3
  t=        38.25000    9    5
H     -12.645240316      0.316145712    -13.985975365
H     -11.559497732      6.389553381     15.617860091
O       1.878941730     -0.517364398     -0.111214844
           3
  t=        38.50000    9    5
H     -12.734258178      0.318392151    -14.084333965
H     -11.640204587      6.434125680     15.726720598
O       1.889635949     -0.520314417     -0.111876567
           3
  t=        38.75000    9    5
H     -12.823291556      0.320637595    -14.182716167
H     -11.720922114      6.478705502     15.835603084
O       1.900331818     -0.523264847     -0.112538188
           3
  t=        39.00000    9    5
H     -12.912340237      0.322882057    -14.281121649
H     -11.801650166      6.523292744     15.944507250
O       1.911029314     -0.526215683     -0.113199708
           3
  t=        39.25000    9    5
H     -13.001404012      0.325125550    -14.379550096
H     -11.882388601      6.567887307     16.053432804
O       1.921728416     -0.529166919     -0.113861128
           3
  t=        39.50000    9    5
H     -13.090482678      0.327368086    -14.478001199
H     -11.963137278      6.612489091     16.162379459
O       1.932429101     -0.532118549     -0.114522451
           3
  t=        39.75000    9    5
H     -13.179576033      0.329609678    -14.576474655
H     -12.043896061      6.657098000     16.271346932
O       1.943131349     -0.535070569     -0.115183677
           3
  t=        40.00000    9    5
H     -13.268683882      0.331850339    -14.674970167
H     -12.124664815      6.701713939     16.380334949
O       1.953835138     -0.538022974     -0.115844808
           3
  t=        40.25000    9    5
H     -13.357806032      0.334090080    -14.773487443
H     -12.205443409      6.746336817     16.489343239
O       1.964540448     -0.540975757     -0.116505844
           3
  t=        40.50000    9    5
H     -13.446942294      0.336328913    -14.872026198
H     -12.286231712      6.790966541     16.598371537
O       1.975247259     -0.543928915     -0.117166788
           3
  t=        40.75000    9    5
H     -13.536092484      0.338566849    -14.970586152
H     -12.367029599      6.835603023     16.707419582
O       1.985955552     -0.546882442     -0.117827641
           3
  t=        41.00000    9    5
H     -13.625256419      0.340803900    -15.069167031
H     -12.447836945      6.880246175     16.816487120
O       1.996665307     -0.549836334     -0.118488403
           3
  t=        41.25000    9    5
H     -13.714433921      0.343040078    -15.167768564
H     -12.528653628      6.924895913     16.925573900
O       2.007376504     -0.552790585     -0.119149077
           3
  t=        41.50000    9    5
H     -13.803624817      0.345275392    -15.266390489
H     -12.609479528      6.969552150     17.034679678
O       2.018089127     -0.555745192     -0.119809662
           3
  t=        41.75000    9    5
H     -13.892828935      0.347509854    -15.365032545
H     -12.690314529      7.014214806     17.143804212
O       2.028803156     -0.558700149     -0.120470161
           3
  t=        42.00000    9    5
H     -13.982046107      0.349743474    -15.463694479
H     -12.771158514      7.058883798     17.252947265
O       2.039518574     -0.561655453     -0.121130574
           3
  t=        42.25000    9    5
H     -14.071276168      0.351976263    -15.562376040
H     -12.852011372      7.103559049     17.362108607
O       2.050235363     -0.564611098     -0.121790903
           3
  t=        42.50000    9    5
H     -14.160518956      0.354208230    -15.661076984
H     -12.932872990      7.148240478     17.471288009
O       2.060953505     -0.567567081     -0.122451149
           3
  t=        42.75000    9    5
H     -14.249774312      0.356439386    -15.759797070
H     -13.013743261      7.192928011     17.580485248
O       2.071672985     -0.570523398     -0.123111312
           3
  t=        43.00000    9    5
H     -14.339042081      0.358669740    -15.858536062
H     -13.094622078      7.237621571     17.689700105
O       2.082393786     -0.573480044     -0.123771394
           3
  t=        43.25000    9    5
H     -14.428322109      0.360899303    -15.957293729
H     -13.175509335      7.282321086     17.798932365
O       2.093115890     -0.576437015     -0.124431396
           3
  t=        43.50000    9    5
H     -14.517614247      0.363128082    -16.056069842
H     -13.256404929      7.327026482     17.908181815
O       2.103839283     -0.579394307     -0.125091319
           3
  t=        43.75000    9    5
H     -14.606918346      0.365356088    -16.154864179
H     -13.337308761      7.371737689     18.017448249
O       2.114563949     -0.582351917     -0.125751164
           3
  t=        44.00000    9    5
H     -14.696234262      0.367583330    -16.253676520
H     -13.418220729      7.416454636     18.126731463
O       2.125289872     -0.585309840     -0.126410932
           3
  t=        44.25000    9    5
H     -14.785561853      0.369809817    -16.352506649
H     -13.499140737      7.461177255     18.236031255
O       2.136017037     -0.588268073     -0.127070623
           3
  t=        44.50000    9    5
H     -14.874900978      0.372035557    -16.451354355
H     -13.580068689      7.505905479     18.345347430
O       2.146745430     -0.591226612     -0.127730239
           3
  t=        44.75000    9    5
H     -14.964251502      0.374260559    -16.550219430
H     -13.661004491      7.550639241     18.454679794
O       2.157475035     -0.594185454     -0.128389781
           3
  t=        45.00000    9    5
H     -15.053613288      0.376484832    -16.649101669
H     -13.741948050      7.595378476     18.564028157
O       2.168205839     -0.597144595     -0.129049250
           3
  t=        45.25000    9    5
H     -15.142986204      0.378708384    -16.748000872
H     -13.822899276      7.640123120     18.673392332
O       2.178937827     -0.600104031     -0.129708646
           3
  t=        45.50000    9    5
H     -15.232370120      0.380931223    -16.846916840
H     -13.903858079      7.684873111     18.782772137
O       2.189670986     -0.603063759     -0.130367970
           3
  t=        45.75000    9    5
H     -15.321764909      0.383153357    -16.945849381
H     -13.984824371      7.729628387     18.892167390
O       2.200405301     -0.606023775     -0.131027223
           3
  t=        46.00000    9    5
H     -15.411170443      0.385374794    -17.044798303
H     -14.065798067      7.774388886     19.001577915
O       2.211140761     -0.608984077     -0.131686407
           3
  t=        46.25000    9    5
H     -15.500586601      0.387595542    -17.143763420
H     -14.146779081      7.819154550     19.111003538
O       2.221877350     -0.611944660     -0.132345521
           3
  t=        46.50000    9    5
H     -15.590013260      0.389815609    -17.242744546
H     -14.227767330      7.863925320     19.220444086
O       2.232615057     -0.614905523     -0.133004567
           3
  t=        46.75000    9    5
H     -15.679450301      0.392035002    -17.341741502
H     -14.308762733      7.908701137     19.329899393
O       2.243353869     -0.617866661     -0.133663546
           3
  t=        47.00000    9    5
H     -15.768897606      0.394253728    -17.440754108
H     -14.389765208      7.953481946     19.439369292
O       2.254093774     -0.620828072     -0.134322458
           3
  t=        47.25000    9    5
H     -15.858355060      0.396471795    -17.539782190
H     -14.470774676      7.998267691     19.548853621
O       2.264834759     -0.623789752     -0.134981304
           3
  t=        47.50000    9    5
H     -15.947822550      0.398689210    -17.638825576
H     -14.551791060      8.043058316     19.658352218
O       2.275576811     -0.626751698     -0.135640085
           3
  t=        47.75000    9    5
H     -16.037299963      0.400905980    -17.737884096
H     -14.632814283      8.087853767     19.767864928
O       2.286319920     -0.629713908     -0.136298802
           3
  t=        48.00000    9    5
H     -16.126787190      0.403122112    -17.836957583
H     -14.713844269      8.132653993     19.877391595
O       2.297064073     -0.632676379     -0.136957454
           3
  t=        48.25000    9    5
H     -16.216284124      0.405337613    -17.936045874
H     -14.794880945      8.177458940     19.986932067
O       2.307809260     -0.635639107     -0.137616044
           3
  t=        48.50000    9    5
H     -16.305790657      0.407552490    -18.035148808
H     -14.875924237      8.222268557     20.096486194
O       2.318555468     -0.638602090     -0.138274572
           3
  t=        48.75000    9    5
H     -16.395306684      0.409766749    -18.134266225
H     -14.956974074      8.267082794     20.206053828
O       2.329302687     -0.641565325     -0.138933038
           3
  t=        49.00000    9    5
H     -16.484832105      0.411980396    -18.233397970
H     -15.038030385      8.311901600     20.315634823
O       2.340050906     -0.644528810     -0.139591443
           3
  t=        49.25000    9    5
H     -16.574366816      0.414193439    -18.332543890
H     -15.119093101      8.356724928     20.425229039
O       2.350800113     -0.647492542     -0.140249788
           3
  t=        49.50000    9    5
H     -16.663910718      0.416405882    -18.431703832
H     -15.200162153      8.401552728     20.534836333
O       2.361550299     -0.650456517     -0.140908074
           3
  t=        49.75000    9    5
H     -16.753463715      0.418617734    -18.530877649
H     -15.281237474      8.446384954     20.644456567
O       2.372301453     -0.653420735     -0.141566301
           3
  t=        50.00000    9    5
H     -16.843025707      0.420828999    -18.630065194
H     -15.362318998      8.491221559     20.754089606
O       2.383053565     -0.656385191     -0.142224469
           3
  t=        50.25000    9    5
H     -16.932596602      0.423039684    -18.729266322
H     -15.443406660      8.536062497     20.863735315
O       2.393806624     -0.659349883     -0.142882580
           3
  t=        50.50000    9    5
H     -17.022176306      0.425249795    -18.828480892
H     -15.524500395      8.580907722     20.973393562
O       2.404560621     -0.662314810     -0.143540635
           3
  t=        50.75000    9    5
H     -17.111764726      0.427459337    -18.927708765
H     -15.605600140      8.625757191     21.083064217
O       2.415315546     -0.665279968     -0.144198632
           3
  t=        51.00000    9    5
H     -17.201361772      0.429668317    -19.026949802
H     -15.686705833      8.670610859     21.192747153
O       2.426071389     -0.668245355     -0.144856574
           3
  t=        51.25000    9    5
H     -17.290967354      0.431876739    -19.126203868
H     -15.767817413      8.715468683     21.302442243
O       2.436828141     -0.671210969     -0.145514461
           3
  t=        51.50000    9    5
H     -17.380581385      0.434084610    -19.225470830
H     -15.848934820      8.760330621     21.412149363
O       2.447585792     -0.674176808     -0.146172294
           3
  t=        51.75000    9    5
H     -17.470203779      0.436291935    -19.324750556
H     -15.930057994      8.805196631     21.521868391
O       2.458344334     -0.677142868     -0.146830072
           3
  t=        52.00000    9    5
H     -17.559834450      0.438498720    -19.424042918
H     -16.011186876      8.850066671     21.631599207
O       2.469103757     -0.680109149     -0.147487797
           3
  t=        52.25000    9    5
H     -17.649473314      0.440704969    -19.523347787
H     -16.092321409      8.894940702     21.741341692
O       2.479864052     -0.683075647     -0.148145469
           3
  t=        52.50000    9    5
H     -17.739120289      0.442910689    -19.622665038
H     -16.173461537      8.939818683     21.851095730
O       2.490625211     -0.686042361     -0.148803089
           3
  t=        52.75000    9    5
H     -17.828775292      0.445115884    -19.721994548
H     -16.254607203      8.984700575     21.960861205
O       2.501387225     -0.689009288     -0.149460657
           3
  t=        53.00000    9    5
H     -17.918438245      0.447320559    -19.821336194
H     -16.335758352      9.029586339     22.070638004
O       2.512150085     -0.691976426     -0.150118174
           3
  t=        53.25000    9    5
H     -18.008109068      0.449524719    -19.920689857
H     -16.416914930      9.074475936     22.180426015
O       2.522913783     -0.694943774     -0.150775640
           3
  t=        53.50000    9    5
H     -18.097787683      0.451728370    -20.020055418
H     -16.498076883      9.119369329     22.290225128
O       2.533678311     -0.697911329     -0.151433057
           3
  t=        53.75000    9    5
H     -18.187474014      0.453931516    -20.119432761
H     -16.579244159      9.164266482     22.400035235
O       2.544443660     -0.700879088     -0.152090423
           3
  t=        54.00000    9    5
H     -18.277167984      0.456134162    -20.218821771
H     -16.660416706      9.209167356     22.509856230
O       2.555209823     -0.703847051     -0.152747740
           3
  t=        54.25000    9    5
H     -18.366869520      0.458336313    -20.318222335
H     -16.741594473      9.254071917     22.619688005
O       2.565976791     -0.706815214     -0.153405009
           3
  t=        54.50000    9    5
H     -18.456578547      0.460537974    -20.417634341
H     -16.822777408      9.298980129     22.729530459
O       2.576744557     -0.709783577     -0.154062230
           3
  t=        54.75000    9    5
H     -18.546294995      0.462739148    -20.517057680
H     -16.903965464      9.343891956     22.839383488
O       2.587513113     -0.712752137     -0.154719402
           3
  t=        55.00000    9    5
H     -18.636018790      0.464939842    -20.616492242
H     -16.985158589      9.388807365     22.949246992
O       2.598282452     -0.715720893     -0.155376528
           3
  t=        55.25000    9    5
H     -18.725749864      0.467140058    -20.715937921
H     -17.066356737      9.433726320     23.059120870
O       2.609052565     -0.718689842     -0.156033607
           3
  t=        55.50000    9    5
H     -18.815488146      0.469339802    -20.815394612
H     -17.147559860      9.478648789     23.169005026
O       2.619823446     -0.721658982     -0.156690639
           3
  t=        55.75000    9    5
H     -18.905233569      0.471539078    -20.914862210
H     -17.228767910      9.523574738     23.278899363
O       2.630595088     -0.724628312     -0.157347626
           3
  t=        56.00000    9    5
H     -18.994986064      0.473737891    -21.014340614
H     -17.309980841      9.568504136     23.388803784
O       2.641367483     -0.727597830     -0.158004568
           3
  t=        56.25000    9    5
H     -19.084745566      0.475936244    -21.113829722
H     -17.391198608      9.613436949     23.498718196
O       2.652140624     -0.730567535     -0.158661464
           3
  t=        56.50000    9    5
H     -19.174512009      0.478134141    -21.213329435
H     -17.472421165      9.658373145     23.608642507
O       2.662914504     -0.733537424     -0.159318316
           3
  t=        56.75000    9    5
H     -19.264285329      0.480331588    -21.312839655
H     -17.553648469      9.703312695     23.718576625
O       2.673689117     -0.736507496     -0.159975124
           3
  t=        57.00000    9    5
H     -19.354065461      0.482528587    -21.412360284
H     -17.634880475      9.748255566     23.828520459
O       2.684464455     -0.739477749     -0.160631888
           3
  t=        57.25000    9    5
H     -19.443852343      0.484725144    -21.511891228
H     -17.716117140      9.793201728     23.938473922
O       2.695240512     -0.742448181     -0.161288609
           3
  t=        57.50000    9    5
H     -19.533645913      0.486921261    -21.611432391
H     -17.797358422      9.838151151     24.048436924
O       2.706017281     -0.745418792     -0.161945287
           3
  t=        57.75000    9    5
H     -19.623446110      0.489116943    -21.710983682
H     -17.878604278      9.883103807     24.158409380
O       2.716794756     -0.748389578     -0.162601923
           3
  t=        58.00000    9    5
H     -19.713252873      0.491312194    -21.810545007
H     -17.959854667      9.928059664     24.268391205
O       2.727572931     -0.751360539     -0.163258516
           3
  t=        58.25000    9    5
H     -19.803066143      0.493507017    -21.910116278
H     -18.041109549      9.973018695     24.378382313
O       2.738351798     -0.754331673     -0.163915068
           3
  t=        58.50000    9    5
H     -19.892885862      0.495701417    -22.009697404
H     -18.122368882     10.017980872     24.488382622
O       2.749131353     -0.757302979     -0.164571579
           3
  t=        58.75000    9    5
H     -19.982711971      0.497895397    -22.109288297
H     -18.203632628     10.062946165     24.598392050
O       2.759911588     -0.760274455     -0.165228049
           3
  t=        59.00000    9    5
H     -20.072544414      0.500088960    -22.208888871
H     -18.284900746     10.107914548     24.708410516
O       2.770692497     -0.763246099     -0.165884478
           3
  t=        59.25000    9    5
H     -20.162383133      0.502282111    -22.308499040
H     -18.366173199     10.152885993     24.818437940
O       2.781474075     -0.766217909     -0.166540868
           3
  t=        59.50000    9    5
H     -20.252228074      0.504474852    -22.408118719
H     -18.447449947     10.197860472     24.928474243
O       2.792256316     -0.769189886     -0.167197217
           3
  t=        59.75000    9    5
H     -20.342079181      0.506667188    -22.507747825
H     -18.528730953     10.242837961     25.038519348
O       2.803039214     -0.772162026     -0.167853527
           3
  t=        60.00000    9    5
H     -20.431936401      0.508859122    -22.607386274
H     -18.610016179     10.287818431     25.148573177
O       2.813822763     -0.775134329     -0.168509798
           3
  t=        60.25000    9    5
H     -20.521799679      0.511050657    -22.707033987
H     -18.691305590     10.332801858     25.258635656
O       2.824606957     -0.778106793     -0.169166031
           3
  t=        60.50000    9    5
H     -20.611668963      0.513241797    -22.806690882
H     -18.772599148     10.377788215     25.368706709
O       2.835391790     -0.781079417     -0.169822225
           3
  t=        60.75000    9    5
H     -20.701544201      0.515432545    -22.906356881
H     -18.853896818     10.422777478     25.478786262
O       2.846177259     -0.784052199     -0.170478381
           3
  t=        61.00000    9    5
H     -20.791425342      0.517622904    -23.006031904
H     -18.935198565     10.467769621     25.588874242
O       2.856963355     -0.787025138     -0.171134499
           3
  t=        61.25000    9    5
H     -20.881312334      0.519812877    -23.105715875
H     -19.016504353     10.512764620     25.698970578
O       2.867750076     -0.789998233     -0.171790580
           3
  t=        61.50000    9    5
H     -20.971205128      0.522002469    -23.205408718
H     -19.097814148     10.557762450     25.809075198
O       2.878537414     -0.792971482     -0.172446625
           3
  t=        61.75000    9    5
H     -21.061103674      0.524191682    -23.305110356
H     -19.179127916     10.602763088     25.919188033
O       2.889325365     -0.795944885     -0.173102632
           3
  t=        62.00000    9    5
H     -21.151007924      0.526380519    -23.404820717
H     -19.260445623     10.647766510     26.029309013
O       2.900113924     -0.798918438     -0.173758603
           3
  t=        62.25000    9    5
H     -21.240917828      0.528568983    -23.504539725
H     -19.341767237     10.692772692     26.139438070
O       2.910903085     -0.801892143     -0.174414538
           3
  t=        62.50000    9    5
H     -21.330833340      0.530757077    -23.604267310
H     -19.423092724     10.737781612     26.249575135
O       2.921692843     -0.804865996     -0.175070438
           3
  t=        62.75000    9    5
H     -21.420754412      0.532944805    -23.704003399
H     -19.504422052     10.782793246     26.359720143
O       2.932483194     -0.807839998     -0.175726302
           3
  t=        63.00000    9    5
H     -21.510680998      0.535132169    -23.803747921
H     -19.585755189     10.827807571     26.469873028
O       2.943274132     -0.810814146     -0.176382131
           3
  t=        63.25000    9    5
H     -21.600613052      0.537319173    -23.903500807
H     -19.667092104     10.872824567     26.580033724
O       2.954065653     -0.813788440     -0.177037925
           3
  t=        63.50000    9    5
H     -21.690550529      0.539505819    -24.003261987
H     -19.748432765     10.917844210     26.690202167
O       2.964857752     -0.816762878     -0.177693685
           3
  t=        63.75000    9    5
H     -21.780493384      0.541692109    -24.103031394
H     -19.829777141     10.962866479     26.800378294
O       2.975650423     -0.819737459     -0.178349410
           3
  t=        64.00000    9    5
H     -21.870441573      0.543878048    -24.202808961
H     -19.911125203     11.007891352     26.910562042
O       2.986443663     -0.822712182     -0.179005102
           3
  t=        64.25000    9    5
H     -21.960395051      0.546063638    -24.302594620
H     -19.992476920     11.052918809     27.020753349
O       2.997237466     -0.825687046     -0.179660760
           3
  t=        64.50000    9    5
H     -22.050353777      0.548248881    -24.402388306
H     -20.073832262     11.097948828     27.130952154
O       3.008031829     -0.828662049     -0.180316384
           3
  t=        64.75000    9    5
H     -22.140317707      0.550433781    -24.502189954
H     -20.155191200     11.142981389     27.241158396
O       3.018826746     -0.831637191     -0.180971976
           3
  t=        65.00000    9    5
H     -22.230286800      0.552618340    -24.601999500
H     -20.236553705     11.188016471     27.351372016
O       3.029622213     -0.834612470     -0.181627534
           3
  t=        65.25000    9    5
H     -22.320261013      0.554802560    -24.701816881
H     -20.317919748     11.233054054     27.461592955
O       3.040418225     -0.837587886     -0.182283061
           3
  t=        65.50000    9    5
H     -22.410240306      0.556986445    -24.801642034
H     -20.399289302     11.278094118     27.571821154
O       3.051214779     -0.840563436     -0.182938554
           3
  t=        65.75000    9    5
H     -22.500224637      0.559169997    -24.901474897
H     -20.480662338     11.323136644     27.682056555
O       3.062011870     -0.843539121     -0.183594016
           3
  t=        66.00000    9    5
H     -22.590213968      0.561353218    -25.001315409
H     -20.562038829     11.368181611     27.792299102
O       3.072809493     -0.846514939     -0.184249447
           3
  t=        66.25000    9    5
H     -22.680208258      0.563536112    -25.101163510
H     -20.643418746     11.413229001     27.902548739
O       3.083607645     -0.849490889     -0.184904846
           3
  t=        66.50000    9    5
H     -22.770207468      0.565718680    -25.201019140
H     -20.724802065     11.458278795     28.012805410
O       3.094406321     -0.852466970     -0.185560213
           3
  t=        66.75000    9    5
H     -22.860211559      0.567900926    -25.300882240
H     -20.806188756     11.503330973     28.123069059
O       3.105205517     -0.855443180     -0.186215550
           3
  t=        67.00000    9    5
H     -22.950220493      0.570082851    -25.400752751
H     -20.887578795     11.548385518     28.233339633
O       3.116005229     -0.858419520     -0.186870856
           3
  t=        67.25000    9    5
H     -23.040234233      0.572264459    -25.500630617
H     -20.968972156     11.593442410     28.343617078
O       3.126805454     -0.861395988     -0.187526131
           3
  t=        67.50000    9    5
H     -23.130252740      0.574445751    -25.600515779
H     -21.050368811     11.638501632     28.453901341
O       3.137606186     -0.864372582     -0.188181377
           3
  t=        67.75000    9    5
H     -23.220275979      0.576626730    -25.700408183
H     -21.131768737     11.683563166     28.564192369
O       3.148407423     -0.867349302     -0.188836592
           3
  t=        68.00000    9    5
H     -23.310303912      0.578807398    -25.800307772
H     -21.213171908     11.728626993     28.674490110
O       3.159209159     -0.870326148     -0.189491778
           3
  t=        68.25000    9    5
H     -23.400336503      0.580987758    -25.900214490
H     -21.294578299     11.773693097     28.784794513
O       3.170011393     -0.873303117     -0.190146934
           3
  t=        68.50000    9    5
H     -23.490373716      0.583167812    -26.000128285
H     -21.375987885     11.818761460     28.895105528
O       3.180814118     -0.876280209     -0.190802061
           3
  t=        68.75000    9    5
H     -23.580415517      0.585347562    -26.100049101
H     -21.457400643     11.863832065     29.005423104
O       3.191617333     -0.879257424     -0.191457158
           3
  t=        69.00000    9    5
H     -23.670461871      0.587527011    -26.199976886
H     -21.538816547     11.908904895     29.115747191
O       3.202421033     -0.882234760     -0.192112228
           3
  t=        69.25000    9    5
H     -23.760512742      0.589706160    -26.299911588
H     -21.620235575     11.953979933     29.226077741
O       3.213225214     -0.885212216     -0.192767268
           3
  t=        69.50000    9    5
H     -23.850568097      0.591885013    -26.399853153
H     -21.701657703     11.999057163     29.336414706
O       3.224029873     -0.888189791     -0.193422280
           3
  t=        69.75000    9    5
H     -23.940627903      0.594063570    -26.499801532
H     -21.783082907     12.044136568     29.446758037
O       3.234835006     -0.891167485     -0.194077264
           3
  t=        70.00000    9    5
H     -24.030692125      0.596241835    -26.599756672
H     -21.864511166     12.089218132     29.557107687
O       3.245640611     -0.894145296     -0.194732220
           3
  t=        70.25000    9    5
H     -24.120760730      0.598419809    -26.699718524
H     -21.945942455     12.134301839     29.667463609
O       3.256446682     -0.897123225     -0.195387149
           3
  t=        70.50000    9    5
H     -24.210833687      0.600597495    -26.799687038
H     -22.027376752     12.179387673     29.777825756
O       3.267253217     -0.900101269     -0.196042050
           3
  t=        70.75000    9    5
H     -24.300910963      0.602774895    -26.899662164
H     -22.108814036     12.224475619     29.888194084
O       3.278060212     -0.903079428     -0.196696923
           3
  t=        71.00000    9    5
H     -24.390992526      0.604952010    -26.999643855
H     -22.190254284     12.269565660     29.998568546
O       3.288867664     -0.906057701     -0.197351770
           3
  t=        71.25000    9    5
H     -24.481078345      0.607128843    -27.099632062
H     -22.271697475     12.314657782     30.108949098
O       3.299675570     -0.909036087     -0.198006589
           3
  t=        71.50000    9    5
H     -24.571168387      0.609305396    -27.199626737
H     -22.353143587     12.359751970     30.219335695
O       3.310483926     -0.912014586     -0.198661382
           3
  t=        71.75000    9    5
H     -24.661262624      0.611481671    -27.299627834
H     -22.434592599     12.404848208     30.329728294
O       3.321292729     -0.914993197     -0.199316149
           3
  t=        72.00000    9    5
H     -24.751361023      0.613657669    -27.399635306
H     -22.516044490     12.449946482     30.440126851
O       3.332101975     -0.917971919     -0.199970889
           3
  t=        72.25000    9    5
H     -24.841463554      0.615833393    -27.499649107
H     -22.597499238     12.495046776     30.550531323
O       3.342911662     -0.920950750     -0.200625604
           3
  t=        72.50000    9    5
H     -24.931570189      0.618008845    -27.599669191
H     -22.678956824     12.540149077     30.660941668
O       3.353721787     -0.923929691     -0.201280292
           3
  t=        72.75000    9    5
H     -25.021680897      0.620184027    -27.699695513
H     -22.760417227     12.585253370     30.771357843
O       3.364532345     -0.926908740     -0.201934955
           3
  t=        73.00000    9    5
H     -25.111795649      0.622358940    -27.799728029
H     -22.841880427     12.630359641     30.881779808
O       3.375343335     -0.929887897     -0.202589592
           3
  t=        73.25000    9    5
H     -25.201914416      0.624533586    -27.899766695
H     -22.923346404     12.675467875     30.992207521
O       3.386154752     -0.932867161     -0.203244204
           3
  t=        73.50000    9    5
H     -25.292037170      0.626707968    -27.999811466
H     -23.004815138     12.720578059     31.102640941
O       3.396966595     -0.935846531     -0.203898790
           3
  t=        73.75000    9    5
H     -25.382163882      0.628882087    -28.099862300
H     -23.086286610     12.765690180     31.213080028
O       3.407778859     -0.938826007     -0.204553352
           3
  t=        74.00000    9    5
H     -25.472294524      0.631055945    -28.199919155
H     -23.167760801     12.810804223     31.323524742
O       3.418591542     -0.941805587     -0.205207889
           3
  t=        74.25000    9    5
H     -25.562429069      0.633229543    -28.299981987
H     -23.249237691     12.855920174     31.433975044
O       3.429404642     -0.944785271     -0.205862402
           3
  t=        74.50000    9    5
H     -25.652567489      0.635402884    -28.400050755
H     -23.330717261     12.901038022     31.544430895
O       3.440218154     -0.947765059     -0.206516890
           3
  t=        74.75000    9    5
H     -25.742709757      0.637575970    -28.500125417
H     -23.412199493     12.946157751     31.654892256
O       3.451032077     -0.950744949     -0.207171354
           3
  t=        75.00000    9    5
H     -25.832855846      0.639748801    -28.600205933
H     -23.493684368     12.991279350     31.765359089
O       3.461846406     -0.953724940     -0.207825794
           3
  t=        75.25000    9    5
H     -25.923005730      0.641921380    -28.700292262
H     -23.575171868     13.036402806     31.875831356
O       3.472661141     -0.956705033     -0.208480210
           3
  t=        75.50000    9    5
H     -26.013159382      0.644093709    -28.800384364
H     -23.656661975     13.081528105     31.986309020
O       3.483476277     -0.959685226     -0.209134602
           3
  t=        75.75000    9    5
H     -26.103316776      0.646265788    -28.900482199
H     -23.738154671     13.126655235     32.096792044
O       3.494291812     -0.962665519     -0.209788971
           3
  t=        76.00000    9    5
H     -26.193477886      0.648437621    -29.000585728
H     -23.819649938     13.171784183     32.207280391
O       3.505107743     -0.965645911     -0.210443316
           3
  t=        76.25000    9    5
H     -26.283642688      0.650609208    -29.100694912
H     -23.901147758     13.216914938     32.317774024
O       3.515924067     -0.968626401     -0.211097639
           3
  t=        76.50000    9    5
H     -26.373811155      0.652780551    -29.200809712
H     -23.982648115     13.262047486     32.428272909
O       3.526740782     -0.971606989     -0.211751938
           3
  t=        76.75000    9    5
H     -26.463983263      0.654951653    -29.300930090
H     -24.064150990     13.307181816     32.538777008
O       3.537557886     -0.974587674     -0.212406214
           3
  t=        77.00000    9    5
H     -26.554158987      0.657122513    -29.401056010
H     -24.145656368     13.352317915     32.649286288
O       3.548375375     -0.977568455     -0.213060468
           3
  t=        77.25000    9    5
H     -26.644338302      0.659293134    -29.501187432
H     -24.227164230     13.397455772     32.759800713
O       3.559193247     -0.980549331     -0.213714699
           3
  t=        77.50000    9    5
H     -26.734521185      0.661463518    -29.601324321
H     -24.308674560     13.442595374     32.870320249
O       3.570011499     -0.983530303     -0.214368907
           3
  t=        77.75000    9    5
H     -26.824707611      0.663633667    -29.701466639
H     -24.390187343     13.487736711     32.980844861
O       3.580830128     -0.986511370     -0.215023094
           3
  t=        78.00000    9    5
H     -26.914897557      0.665803581    -29.801614350
H     -24.471702560     13.532879770     33.091374516
O       3.591649134     -0.989492530     -0.215677258
           3
  t=        78.25000    9    5
H     -27.005090999      0.667973262    -29.901767419
H     -24.553220197     13.578024541     33.201909180
O       3.602468511     -0.992473783     -0.216331400
           3
  t=        78.50000    9    5
H     -27.095287913      0.670142711    -30.001925810
H     -24.634740237     13.623171011     33.312448821
O       3.613288259     -0.995455129     -0.216985521
           3
  t=        78.75000    9    5
H     -27.185488278      0.672311932    -30.102089488
H     -24.716262664     13.668319169     33.422993405
O       3.624108375     -0.998436566     -0.217639620
           3
  t=        79.00000    9    5
H     -27.275692069      0.674480923    -30.202258418
H     -24.797787462     13.713469006     33.533542900
O       3.634928856     -1.001418095     -0.218293697
           3
  t=        79.25000    9    5
H     -27.365899264      0.676649689    -30.302432565
H     -24.879314616     13.758620508     33.644097273
O       3.645749700     -1.004399715     -0.218947753
           3
  t=        79.50000    9    5
H     -27.456109842      0.678818228    -30.402611896
H     -24.960844111     13.803773666     33.754656493
O       3.656570905     -1.007381424     -0.219601788
           3
  t=        79.75000    9    5
H     -27.546323779      0.680986544    -30.502796376
H     -25.042375931     13.848928469     33.865220529
O       3.667392468     -1.010363224     -0.220255802
           3
  t=        80.00000    9    5
H     -27.636541054      0.683154638    -30.602985971
H     -25.123910061     13.894084906     33.975789348
O       3.678214386     -1.013345112     -0.220909795
           3
  t=        80.25000    9    5
H     -27.726761646      0.685322510    -30.703180650
H     -25.205446486     13.939242967     34.086362921
O       3.689036659     -1.016327089     -0.221563767
           3
  t=        80.50000    9    5
H     -27.816985531      0.687490163    -30.803380379
H     -25.286985191     13.984402640     34.196941216
O       3.699859282     -1.019309153     -0.222217719
           3
  t=        80.75000    9    5
H     -27.907212691      0.689657598    -30.903585125
H     -25.368526161     14.029563916     34.307524203
O       3.710682255     -1.022291305     -0.222871650
           3
  t=        81.00000    9    5
H     -27.997443102      0.691824815    -31.003794856
H     -25.450069383     14.074726785     34.418111852
O       3.721505574     -1.025273543     -0.223525560
           3
  t=        81.25000    9    5
H     -28.087676745      0.693991818    -31.104009541
H     -25.531614841     14.119891235     34.528704133
O       3.732329238     -1.028255867     -0.224179451
           3
  t=        81.50000    9    5
H     -28.177913598      0.696158606    -31.204229147
H     -25.613162522     14.165057258     34.639301017
O       3.743153244     -1.031238277     -0.224833321
           3
  t=        81.75000    9    5
H     -28.268153642      0.698325181    -31.304453643
H     -25.694712410     14.210224843     34.749902474
O       3.753977590     -1.034220772     -0.225487171
           3
  t=        82.00000    9    5
H     -28.358396855      0.700491545    -31.404682999
H     -25.776264493     14.255393980     34.860508476
O       3.764802274     -1.037203352     -0.226141002
           3
  t=        82.25000    9    5
H     -28.448643218      0.702657699    -31.504917184
H     -25.857818755     14.300564660     34.971118994
O       3.775627294     -1.040186015     -0.226794813
           3
  t=        82.50000    9    5
H     -28.538892710      0.704823644    -31.605156166
H     -25.939375185     14.345736872     35.081734000
O       3.786452648     -1.043168762     -0.227448604
           3
  t=        82.75000    9    5
H     -28.629145313      0.706989382    -31.705399917
H     -26.020933767     14.390910607     35.192353465
O       3.797278333     -1.046151592     -0.228102376
           3
  t=        83.00000    9    5
H     -28.719401006      0.709154913    -31.805648406
H     -26.102494488     14.436085856     35.302977361
O       3.808104348     -1.049134504     -0.228756128
           3
  t=        83.25000    9    5
H     -28.809659771      0.711320240    -31.905901604
H     -26.184057336     14.481262609     35.413605661
O       3.818930690     -1.052117498     -0.229409862
           3
  t=        83.50000    9    5
H     -28.899921587      0.713485362    -32.006159480
H     -26.265622296     14.526440856     35.524238338
O       3.829757358     -1.055100573     -0.230063576
           3
  t=        83.75000    9    5
H     -28.990186436      0.715650282    -32.106422007
H     -26.347189356     14.571620590     35.634875365
O       3.840584349     -1.058083730     -0.230717271
           3
  t=        84.00000    9    5
H     -29.080454299      0.717815001    -32.206689156
H     -26.428758502     14.616801799     35.745516713
O       3.851411662     -1.061066966     -0.231370947
           3
  t=        84.25000    9    5
H     -29.170725158      0.719979520    -32.306960898
H     -26.510329723     14.661984476     35.856162358
O       3.862239294     -1.064050282     -0.232024605
           3
  t=        84.50000    9    5
H     -29.260998993      0.722143840    -32.407237204
H     -26.591903004     14.707168611     35.966812273
O       3.873067243     -1.067033678     -0.232678244
           3
  t=        84.75000    9    5
H     -29.351275787      0.724307962    -32.507518047
H     -26.673478334     14.752354195     36.077466431
O       3.883895508     -1.070017153     -0.233331865
           3
  t=        85.00000    9    5
H     -29.441555522      0.726471888    -32.607803399
H     -26.755055699     14.797541220     36.188124807
O       3.894724087     -1.073000706     -0.233985467
           3
  t=        85.25000    9    5
H     -29.531838179      0.728635619    -32.708093233
H     -26.836635088     14.842729676     36.298787375
O       3.905552977     -1.075984336     -0.234639051
           3
  t=        85.50000    9    5
H     -29.622123741      0.730799156    -32.808387521
H     -26.918216489     14.887919555     36.409454109
O       3.916382176     -1.078968045     -0.235292617
           3
  t=        85.75000    9    5
H     -29.712412189      0.732962500    -32.908686236
H     -26.999799888     14.933110849     36.520124985
O       3.927211684     -1.081951830     -0.235946165
           3
  t=        86.00000    9    5
H     -29.802703507      0.735125652    -33.008989352
H     -27.081385274     14.978303548     36.630799977
O       3.938041498     -1.084935692     -0.236599695
           3
  t=        86.25000    9    5
H     -29.892997678      0.737288613    -33.109296842
H     -27.162972635     15.023497645     36.741479061
O       3.948871616     -1.087919630     -0.237253207
           3
  t=        86.50000    9    5
H     -29.983294683      0.739451385    -33.209608679
H     -27.244561958     15.068693131     36.852162212
O       3.959702036     -1.090903643     -0.237906702
           3
  t=        86.75000    9    5
H     -30.073594506      0.741613969    -33.309924839
H     -27.326153234     15.113889998     36.962849406
O       3.970532756     -1.093887731     -0.238560178
           3
  t=        87.00000    9    5
H     -30.163897130      0.743776365    -33.410245295
H     -27.407746449     15.159088237     37.073540619
O       3.981363776     -1.096871895     -0.239213638
           3
  t=        87.25000    9    5
H     -30.254202539      0.745938575    -33.510570021
H     -27.489341592     15.204287840     37.184235827
O       3.992195092     -1.099856132     -0.239867080
           3
  t=        87.50000    9    5
H     -30.344510715      0.748100600    -33.610898992
H     -27.570938651     15.249488800     37.294935007
O       4.003026703     -1.102840443     -0.240520505
           3
  t=        87.75000    9    5
H     -30.434821643      0.750262441    -33.711232183
H     -27.652537616     15.294691108     37.405638134
O       4.013858608     -1.105824828     -0.241173913
           3
  t=        88.00000    9    5
H     -30.525135306      0.752424100    -33.811569570
H     -27.734138475     15.339894756     37.516345186
O       4.024690805     -1.108809285     -0.241827303
           3
  t=        88.25000    9    5
H     -30.615451687      0.754585576    -33.911911127
H     -27.815741217     15.385099737     37.627056139
O       4.035523291     -1.111793815     -0.242480677
           3
  t=        88.50000    9    5
H     -30.705770772      0.756746871    -34.012256829
H     -27.897345831     15.430306042     37.737770972
O       4.046356066     -1.114778417     -0.243134034
           3
  t=        88.75000    9    5
H     -30.796092543      0.758907987    -34.112606654
H     -27.978952306     15.475513664     37.848489661
O       4.057189127     -1.117763091     -0.243787374
           3
  t=        89.00000    9    5
H     -30.886416986      0.761068924    -34.212960576
H     -28.060560631     15.520722595     37.959212183
O       4.068022473     -1.120747836     -0.244440698
           3
  t=        89.25000    9    5
H     -30.976744085      0.763229683    -34.313318572
H     -28.142170795     15.565932828     38.069938517
O       4.078856103     -1.123732652     -0.245094005
           3
  t=        89.50000    9    5
H     -31.067073823      0.765390266    -34.413680619
H     -28.223782788     15.611144355     38.180668640
O       4.089690014     -1.126717538     -0.245747295
           3
  t=        89.75000    9    5
H     -31.157406187      0.767550672    -34.514046692
H     -28.305396598     15.656357168     38.291402531
O       4.100524205     -1.129702494     -0.246400569
           3
  t=        90.00000    9    5
H     -31.247741161      0.769710905    -34.614416769
H     -28.387012217     15.701571261     38.402140168
O       4.111358674     -1.132687520     -0.247053827
           3
  t=        90.25000    9    5
H     -31.338078729      0.771870963    -34.714790827
H     -28.468629632     15.746786626     38.512881529
O       4.122193420     -1.135672615     -0.247707069
           3
  t=        90.50000    9    5
H     -31.428418877      0.774030849    -34.815168842
H     -28.550248835     15.792003255     38.623626594
O       4.133028441     -1.138657778     -0.248360295
           3
  t=        90.75000    9    5
H     -31.518761590      0.776190563    -34.915550793
H     -28.631869814     15.837221141     38.734375340
O       4.143863736     -1.141643010     -0.249013505
           3
  t=        91.00000    9    5
H     -31.609106853      0.778350106    -35.015936656
H     -28.713492560     15.882440278     38.845127748
O       4.154699303     -1.144628311     -0.249666699
           3
  t=        91.25000    9    5
H     -31.699454652      0.780509479    -35.116326411
H     -28.795117062     15.927660658     38.955883796
O       4.165535140     -1.147613678     -0.250319877
           3
  t=        91.50000    9    5
H     -31.789804972      0.782668683    -35.216720033
H     -28.876743311     15.972882273     39.066643463
O       4.176371246     -1.150599113     -0.250973040
           3
  t=        91.75000    9    5
H     -31.880157800      0.784827720    -35.317117502
H     -28.958371296     16.018105118     39.177406730
O       4.187207619     -1.153584615     -0.251626187
           3
  t=        92.00000    9    5
H     -31.970513120      0.786986589    -35.417518796
H     -29.040001008     16.063329185     39.288173576
O       4.198044259     -1.156570184     -0.252279318
           3
  t=        92.25000    9    5
H     -32.060870919      0.789145293    -35.517923894
H     -29.121632438     16.108554467     39.398943982
O       4.208881162     -1.159555818     -0.252932434
           3
  t=        92.50000    9    5
H     -32.151231183      0.791303831    -35.618332774
H     -29.203265575     16.153780958     39.509717926
O       4.219718329     -1.162541518     -0.253585535
           3
  t=        92.75000    9    5
H     -32.241593898      0.793462205    -35.718745414
H     -29.284900410     16.199008651     39.620495390
O       4.230555757     -1.165527284     -0.254238620
           3
  t=        93.00000    9    5
H     -32.331959051      0.795620415    -35.819161795
H     -29.366536933     16.244237538     39.731276353
O       4.241393445     -1.168513114     -0.254891691
           3
  t=        93.25000    9    5
H     -32.422326627      0.797778463    -35.919581895
H     -29.448175136     16.289467614     39.842060797
O       4.252231391     -1.171499010     -0.255544746
           3
  t=        93.50000    9    5
H     -32.512696613      0.799936350    -36.020005694
H     -29.529815008     16.334698872     39.952848702
O       4.263069595     -1.174484969     -0.256197787
           3
  t=        93.75000    9    5
H     -32.603068997      0.802094076    -36.120433171
H     -29.611456541     16.379931305     40.063640049
O       4.273908054     -1.177470993     -0.256850812
           3
  t=        94.00000    9    5
H     -32.693443764      0.804251642    -36.220864306
H     -29.693099726     16.425164907     40.174434819
O       4.284746768     -1.180457080     -0.257503823
           3
  t=        94.25000    9    5
H     -32.783820901      0.806409049    -36.321299078
H     -29.774744553     16.470399672     40.285232994
O       4.295585734     -1.183443230     -0.258156819
           3
  t=        94.50000    9    5
H     -32.874200396      0.808566298    -36.421737469
H     -29.856391013     16.515635592     40.396034554
O       4.306424952     -1.186429443     -0.258809800
           3
  t=        94.75000    9    5
H     -32.964582236      0.810723390    -36.522179458
H     -29.938039097     16.560872663     40.506839481
O       4.317264420     -1.189415719     -0.259462767
           3
  t=        95.00000    9    5
H     -33.054966407      0.812880325    -36.622625025
H     -30.019688798     16.606110876     40.617647758
O       4.328104137     -1.192402056     -0.260115719
           3
  t=        95.25000    9    5
H     -33.145352897      0.815037105    -36.723074151
H     -30.101340105     16.651350227     40.728459365
O       4.338944101     -1.195388456     -0.260768657
           3
  t=        95.50000    9    5
H     -33.235741693      0.817193730    -36.823526817
H     -30.182993009     16.696590710     40.839274285
O       4.349784311     -1.198374917     -0.261421581
           3
  t=        95.75000    9    5
H     -33.326132784      0.819350202    -36.923983003
H     -30.264647504     16.741832317     40.950092500
O       4.360624765     -1.201361440     -0.262074490
           3
  t=        96.00000    9    5
H     -33.416526155      0.821506520    -37.024442691
H     -30.346303579     16.787075043     41.060913992
O       4.371465463     -1.204348023     -0.262727386
           3
  t=        96.25000    9    5
H     -33.506921796      0.823662686    -37.124905862
H     -30.427961227     16.832318882     41.171738743
O       4.382306403     -1.207334667     -0.263380267
           3
  t=        96.50000    9    5
H     -33.597319694      0.825818700    -37.225372496
H     -30.509620438     16.877563828     41.282566736
O       4.393147584     -1.210321371     -0.264033134
           3
  t=        96.75000    9    5
H     -33.687719836      0.827974564    -37.325842577
H     -30.591281205     16.922809875     41.393397954
O       4.403989004     -1.213308135     -0.264685988
           3
  t=        97.00000    9    5
H     -33.778122211      0.830130278    -37.426316084
H     -30.672943519     16.968057017     41.504232380
O       4.414830663     -1.216294958     -0.265338827
           3
  t=        97.25000    9    5
H     -33.868526807      0.832285843    -37.526793000
H     -30.754607372     17.013305249     41.615069996
O       4.425672558     -1.219281841     -0.265991653
           3
  t=        97.50000    9    5
H     -33.958933612      0.834441260    -37.627273307
H     -30.836272756     17.058554564     41.725910786
O       4.436514689     -1.222268783     -0.266644465
           3
  t=        97.75000    9    5
H     -34.049342614      0.836596529    -37.727756987
H     -30.917939662     17.103804957     41.836754732
O       4.447357054     -1.225255783     -0.267297263
           3
  t=        98.00000    9    5
H     -34.139753802      0.838751651    -37.828244021
H     -30.999608083     17.149056422     41.947601819
O       4.458199653     -1.228242842     -0.267950048
           3
  t=        98.25000    9    5
H     -34.230167164      0.840906628    -37.928734393
H     -31.081278011     17.194308954     42.058452030
O       4.469042483     -1.231229958     -0.268602820
           3
  t=        98.50000    9    5
H     -34.320582688      0.843061459    -38.029228085
H     -31.162949437     17.239562546     42.169305347
O       4.479885544     -1.234217132     -0.269255578
           3
  t=        98.75000    9    5
H     -34.411000363      0.845216145    -38.129725079
H     -31.244622354     17.284817194     42.280161756
O       4.490728835     -1.237204364     -0.269908323
           3
  t=        99.00000    9    5
H     -34.501420179      0.847370688    -38.230225358
H     -31.326296755     17.330072892     42.391021240
O       4.501572354     -1.240191653     -0.270561054
           3
  t=        99.25000    9    5
H     -34.591842123      0.849525088    -38.330728905
H     -31.407972630     17.375329634     42.501883783
O       4.512416100     -1.243178998     -0.271213773
           3
  t=        99.50000    9    5
H     -34.682266185      0.851679346    -38.431235703
H     -31.489649974     17.420587415     42.612749369
O       4.523260072     -1.246166400     -0.271866478
           3
  t=        99.75000    9    5
H     -34.772692353      0.853833462    -38.531745736
H     -31.571328777     17.465846230     42.723617982
O       4.534104268     -1.249153859     -0.272519170
           3
  t=       100.00000    9    5
H     -34.863120617      0.855987437    -38.632258985
H     -31.653009033     17.511106073     42.834489606
O       4.544948688     -1.252141373     -0.273171849
           3
  t=       100.25000    9    5
H     -34.953550966      0.858141273    -38.732775435
H     -31.734690733     17.556366939     42.945364227
O       4.555793331     -1.255128943     -0.273824516
           3
  t=       100.50000    9    5
H     -35.043983388      0.860294969    -38.833295070
H     -31.816373872     17.601628823     43.056241829
O       4.566638195     -1.258116568     -0.274477169
           3
  t=       100.75000    9    5
H     -35.134417875      0.862448526    -38.933817873
H     -31.898058440     17.646891719     43.167122396
O       4.577483279     -1.261104248     -0.275129810
           3
  t=       101.00000    9    5
H     -35.224854413      0.864601945    -39.034343827
H     -31.979744431     17.692155622     43.278005914
O       4.588328582     -1.264091983     -0.275782438
           3
  t=       101.25000    9    5
H     -35.315292995      0.866755227    -39.134872917
H     -32.061431838     17.737420527     43.388892366
O       4.599174102     -1.267079772     -0.276435054
           3
  t=       101.50000    9    5
H     -35.405733608      0.868908373    -39.235405127
H     -32.143120653     17.782686430     43.499781739
O       4.610019840     -1.270067616     -0.277087657
           3
  t=       101.75000    9    5
H     -35.496176242      0.871061382    -39.335940440
H     -32.224810870     17.827953324     43.610674018
O       4.620865793     -1.273055514     -0.277740247
           3
  t=       102.00000    9    5
H     -35.586620887      0.873214256    -39.436478841
H     -32.306502480     17.873221205     43.721569188
O       4.631711961     -1.276043465     -0.278392825
           3
  t=       102.25000    9    5
H     -35.677067534      0.875366996    -39.537020315
H     -32.388195478     17.918490069     43.832467233
O       4.642558342     -1.279031470     -0.279045391
           3
  t=       102.50000    9    5
H     -35.767516171      0.877519602    -39.637564846
H     -32.469889855     17.963759909     43.943368141
O       4.653404936     -1.282019528     -0.279697944
           3
  t=       102.75000    9    5
H     -35.857966789      0.879672074    -39.738112418
H     -32.551585606     18.009030722     44.054271896
O       4.664251741     -1.285007638     -0.280350485
           3
  t=       103.00000    9    5
H     -35.948419378      0.881824415    -39.838663017
H     -32.633282722     18.054302501     44.165178484
O       4.675098756     -1.287995802     -0.281003014
           3
  t=       103.25000    9    5
H     -36.038873928      0.883976623    -39.939216627
H     -32.714981198     18.099575243     44.276087891
O       4.685945980     -1.290984017     -0.281655531
           3
  t=       103.50000    9    5
H     -36.129330428      0.886128700    -40.039773233
H     -32.796681027     18.144848943     44.387000103
O       4.696793413     -1.293972285     -0.282308036
           3
  t=       103.75000    9    5
H     -36.219788870      0.888280646    -40.140332820
H     -32.878382201     18.190123595     44.497915106
O       4.707641053     -1.296960604     -0.282960529
           3
  t=       104.00000    9    5
H     -36.310249244      0.890432462    -40.240895373
H     -32.960084715     18.235399196     44.608832886
O       4.718488898     -1.299948975     -0.283613009
           3
  t=       104.25000    9    5
H     -36.400711540      0.892584150    -40.341460878
H     -33.041788561     18.280675740     44.719753430
O       4.729336949     -1.302937398     -0.284265478
           3
  t=       104.50000    9    5
H     -36.491175748      0.894735708    -40.442029320
H     -33.123493732     18.325953223     44.830676723
O       4.740185204     -1.305925871     -0.284917936
           3
  t=       104.75000    9    5
H     -36.581641859      0.896887138    -40.542600685
H     -33.205200224     18.371231640     44.941602752
O       4.751033662     -1.308914395     -0.285570381
           3
  t=       105.00000    9    5
H     -36.672109864      0.899038441    -40.643174957
H     -33.286908027     18.416510986     45.052531504
O       4.761882322     -1.311902970     -0.286222815
           3
  t=       105.25000    9    5
H     -36.762579753      0.901189617    -40.743752124
H     -33.368617138     18.461791257     45.163462966
O       4.772731183     -1.314891595     -0.286875237
           3
  t=       105.50000    9    5
H     -36.853051517      0.903340667    -40.844332170
H     -33.450327548     18.507072449     45.274397124
O       4.783580244     -1.317880270     -0.287527648
           3
  t=       105.75000    9    5
H     -36.943525147      0.905491592    -40.944915082
H     -33.532039252     18.552354557     45.385333965
O       4.794429504     -1.320868995     -0.288180047
           3
  t=       106.00000    9    5
H     -37.034000633      0.907642391    -41.045500846
H     -33.613752243     18.597637576     45.496273475
O       4.805278962     -1.323857769     -0.288832435
           3
  t=       106.25000    9    5
H     -37.124477968      0.909793066    -41.146089447
H     -33.695466516     18.642921502     45.607215643
O       4.816128618     -1.326846593     -0.289484811
           3
  t=       106.50000    9    5
H     -37.214957141      0.911943617    -41.246680872
H     -33.777182063     18.688206331     45.718160455
O       4.826978469     -1.329835465     -0.290137176
           3
  t=       106.75000    9    5
H     -37.305438143      0.914094045    -41.347275108
H     -33.858898879     18.733492058     45.829107899
O       4.837828516     -1.332824387     -0.290789529
           3
  t=       107.00000    9    5
H     -37.395920967      0.916244350    -41.447872141
H     -33.940616957     18.778778679     45.940057961
O       4.848678757     -1.335813357     -0.291441872
           3
  t=       107.25000    9    5
H     -37.486405603      0.918394533    -41.548471956
H     -34.022336292     18.824066190     46.051010629
O       4.859529192     -1.338802376     -0.292094203
           3
  t=       107.50000    9    5
H     -37.576892042      0.920544595    -41.649074542
H     -34.104056877     18.869354586     46.161965891
O       4.870379819     -1.341791443     -0.292746523
           3
  t=       107.75000    9    5
H     -37.667380275      0.922694536    -41.749679885
H     -34.185778707     18.914643863     46.272923734
O       4.881230637     -1.344780557     -0.293398832
           3
  t=       108.00000    9    5
H     -37.757870295      0.924844357    -41.850287971
H     -34.267501775     18.959934018     46.383884146
O       4.892081646     -1.347769719     -0.294051131
           3
  t=       108.25000    9    5
H     -37.848362092      0.926994058    -41.950898787
H     -34.349226076     19.005225045     46.494847114
O       4.902932844     -1.350758929     -0.294703418
           3
  t=       108.50000    9    5
H     -37.938855659      0.929143639    -42.051512321
H     -34.430951604     19.050516940     46.605812628
O       4.913784232     -1.353748186     -0.295355694
           3
  t=       108.75000    9    5
H     -38.029350985      0.931293103    -42.152128559
H     -34.512678352     19.095809701     46.716780673
O       4.924635807     -1.356737490     -0.296007959
           3
  t=       109.00000    9    5
H     -38.119848065      0.933442448    -42.252747489
H     -34.594406315     19.141103321     46.827751239
O       4.935487569     -1.359726841     -0.296660214
           3
  t=       109.25000    9    5
H     -38.210346888      0.935591675    -42.353369098
H     -34.676135488     19.186397798     46.938724314
O       4.946339517     -1.362716238     -0.297312458
           3
  t=       109.50000    9    5
H     -38.300847446      0.937740786    -42.453993373
H     -34.757865864     19.231693127     47.049699885
O       4.957191651     -1.365705682     -0.297964691
           3
  t=       109.75000    9    5
H     -38.391349733      0.939889780    -42.554620302
H     -34.839597439     19.276989305     47.160677942
O       4.968043968     -1.368695171     -0.298616914
           3
  t=       110.00000    9    5
H     -38.481853738      0.942038658    -42.655249873
H     -34.921330205     19.322286327     47.271658472
O       4.978896470     -1.371684707     -0.299269126
           3
  t=       110.25000    9    5
H     -38.572359455      0.944187421    -42.755882072
H     -35.003064159     19.367584189     47.382641464
O       4.989749153     -1.374674288     -0.299921327
           3
  t=       110.50000    9    5
H     -38.662866875      0.946336069    -42.856516888
H     -35.084799293     19.412882888     47.493626906
O       5.000602019     -1.377663915     -0.300573518
           3
  t=       110.75000    9    5
H     -38.753375991      0.948484603    -42.957154309
H     -35.166535604     19.458182419     47.604614788
O       5.011455065     -1.380653587     -0.301225699
           3
  t=       111.00000    9    5
H     -38.843886793      0.950633023    -43.057794322
H     -35.248273084     19.503482779     47.715605096
O       5.022308292     -1.383643304     -0.301877869
           3
  t=       111.25000    9    5
H     -38.934399276      0.952781330    -43.158436915
H     -35.330011730     19.548783964     47.826597822
O       5.033161698     -1.386633066     -0.302530029
           3
  t=       111.50000    9    5
H     -39.024913430      0.954929524    -43.259082077
H     -35.411751535     19.594085970     47.937592952
O       5.044015282     -1.389622873     -0.303182179
           3
  t=       111.75000    9    5
H     -39.115429248      0.957077606    -43.359729795
H     -35.493492494     19.639388793     48.048590477
O       5.054869044     -1.392612724     -0.303834318
           3
  t=       112.00000    9    5
H     -39.205946723      0.959225577    -43.460380059
H     -35.575234601     19.684692430     48.159590385
O       5.065722982     -1.395602619     -0.304486447
           3
  t=       112.25000    9    5
H     -39.296465846      0.961373436    -43.561032855
H     -35.656977852     19.729996876     48.270592666
O       5.076577096     -1.398592558     -0.305138566
           3
  t=       112.50000    9    5
H     -39.386986610      0.963521184    -43.661688172
H     -35.738722242     19.775302128     48.381597307
O       5.087431386     -1.401582541     -0.305790675
           3
  t=       112.75000    9    5
H     -39.477509008      0.965668822    -43.762346000
H     -35.820467764     19.820608183     48.492604299
O       5.098285850     -1.404572568     -0.306442774
           3
  t=       113.00000    9    5
H     -39.568033032      0.967816351    -43.863006326
H     -35.902214414     19.865915037     48.603613632
O       5.109140487     -1.407562638     -0.307094863
           3
  t=       113.25000    9    5
H     -39.658558674      0.969963770    -43.963669139
H     -35.983962187     19.911222685     48.714625293
O       5.119995297     -1.410552751     -0.307746942
           3
  t=       113.50000    9    5
H     -39.749085928      0.972111080    -44.064334428
H     -36.065711077     19.956531125     48.825639273
O       5.130850279     -1.413542907     -0.308399011
           3
  t=       113.75000    9    5
H     -39.839614786      0.974258283    -44.165002181
H     -36.147461080     20.001840353     48.936655561
O       5.141705432     -1.416533107     -0.309051070
           3
  t=       114.00000    9    5
H     -39.930145240      0.976405378    -44.265672388
H     -36.229212191     20.047150365     49.047674147
O       5.152560756     -1.419523348     -0.309703120
           3
  t=       114.25000    9    5
H     -40.020677284      0.978552365    -44.366345037
H     -36.310964404     20.092461158     49.158695020
O       5.163416249     -1.422513632     -0.310355159
           3
  t=       114.50000    9    5
H     -40.111210910      0.980699246    -44.467020118
H     -36.392717714     20.137772729     49.269718171
O       5.174271911     -1.425503959     -0.311007189
           3
  t=       114.75000    9    5
H     -40.201746111      0.982846020    -44.567697618
H     -36.474472117     20.183085073     49.380743588
O       5.185127741     -1.428494327     -0.311659210
           3
  t=       115.00000    9    5
H     -40.292282881      0.984992688    -44.668377529
H     -36.556227608     20.228398187     49.491771262
O       5.195983739     -1.431484738     -0.312311220
           3
  t=       115.25000    9    5
H     -40.382821211      0.987139252    -44.769059838
H     -36.637984181     20.273712068     49.602801183
O       5.206839903     -1.434475190     -0.312963221
           3
  t=       115.50000    9    5
H     -40.473361095      0.989285710    -44.869744535
H     -36.719741832     20.319026713     49.713833340
O       5.217696233     -1.437465683     -0.313615213
           3
  t=       115.75000    9    5
H     -40.563902526      0.991432064    -44.970431610
H     -36.801500557     20.364342118     49.824867725
O       5.228552728     -1.440456218     -0.314267195
           3
  t=       116.00000    9    5
H     -40.654445498      0.993578314    -45.071121051
H     -36.883260350     20.409658279     49.935904326
O       5.239409387     -1.443446794     -0.314919167
           3
  t=       116.25000    9    5
H     -40.744990003      0.995724460    -45.171812849
H     -36.965021207     20.454975194     50.046943134
O       5.250266210     -1.446437411     -0.315571131
           3
  t=       116.50000    9    5
H     -40.835536034      0.997870503    -45.272506992
H     -37.046783122     20.500292858     50.157984139
O       5.261123196     -1.449428069     -0.316223084
           3
  t=       116.75000    9    5
H     -40.926083585      1.000016444    -45.373203472
H     -37.128546092     20.545611270     50.269027332
O       5.271980344     -1.452418767     -0.316875029
           3
  t=       117.00000    9    5
H     -41.016632649      1.002162282    -45.473902276
H     -37.210310112     20.590930424     50.380072703
O       5.282837653     -1.455409506     -0.317526964
           3
  t=       117.25000    9    5
H     -41.107183219      1.004308019    -45.574603396
H     -37.292075176     20.636250319     50.491120242
O       5.293695124     -1.458400285     -0.318178890
           3
  t=       117.50000    9    5
H     -41.197735290      1.006453655    -45.675306820
H     -37.373841281     20.681570951     50.602169940
O       5.304552754     -1.461391103     -0.318830807
           3
  t=       117.75000    9    5
H     -41.288288853      1.008599189    -45.776012539
H     -37.455608422     20.726892316     50.713221788
O       5.315410544     -1.464381962     -0.319482714
           3
  t=       118.00000    9    5
H     -41.378843903      1.010744624    -45.876720543
H     -37.537376594     20.772214412     50.824275775
O       5.326268492     -1.467372861     -0.320134613
           3
  t=       118.25000    9    5
H     -41.469400433      1.012889958    -45.977430822
H     -37.619145793     20.817537235     50.935331894
O       5.337126598     -1.470363799     -0.320786502
           3
  t=       118.50000    9    5
H     -41.559958436      1.015035193    -46.078143365
H     -37.700916015     20.862860783     51.046390134
O       5.347984862     -1.473354776     -0.321438383
           3
  t=       118.75000    9    5
H     -41.650517907      1.017180328    -46.178858164
H     -37.782687254     20.908185051     51.157450486
O       5.358843282     -1.476345793     -0.322090254
           3
  t=       119.00000    9    5
H     -41.741078839      1.019325365    -46.279575208
H     -37.864459507     20.953510037     51.268512942
O       5.369701858     -1.479336848     -0.322742117
           3
  t=       119.25000    9    5
H     -41.831641225      1.021470304    -46.380294488
H     -37.946232769     20.998835738     51.379577492
O       5.380560589     -1.482327943     -0.323393970
           3
  t=       119.50000    9    5
H     -41.922205060      1.023615145    -46.481015993
H     -38.028007035     21.044162150     51.490644127
O       5.391419475     -1.485319076     -0.324045815
           3
  t=       119.75000    9    5
H     -42.012770336      1.025759888    -46.581739716
H     -38.109782303     21.089489271     51.601712838
O       5.402278515     -1.488310247     -0.324697651
           3
  t=       120.00000    9    5
H     -42.103337048      1.027904534    -46.682465644
H     -38.191558566     21.134817098     51.712783617
O       5.413137708     -1.491301457     -0.325349478
           3
  t=       120.25000    9    5
H     -42.193905190      1.030049084    -46.783193771
H     -38.273335821     21.180145627     51.823856454
O       5.423997054     -1.494292706     -0.326001296
           3
  t=       120.50000    9    5
H     -42.284474756      1.032193538    -46.883924085
H     -38.355114064     21.225474856     51.934931340
O       5.434856551     -1.497283992     -0.326653106
           3
  t=       120.75000    9    5
H     -42.375045738      1.034337895    -46.984656578
H     -38.436893291     21.270804782     52.046008268
O       5.445716200     -1.500275316     -0.327304906
           3
  t=       121.00000    9    5
H     -42.465618132      1.036482158    -47.085391241
H     -38.518673497     21.316135401     52.157087228
O       5.456575999     -1.503266677     -0.327956699
           3
  t=       121.25000    9    5
H     -42.556191932      1.038626325    -47.186128063
H     -38.600454677     21.361466710     52.268168211
O       5.467435949     -1.506258077     -0.328608482
           3
  t=       121.50000    9    5
H     -42.646767131      1.040770398    -47.286867037
H     -38.682236829     21.406798708     52.379251209
O       5.478296047     -1.509249513     -0.329260257
           3
  t=       121.75000    9    5
H     -42.737343723      1.042914376    -47.387608153
H     -38.764019948     21.452131390     52.490336215
O       5.489156295     -1.512240987     -0.329912024
           3
  t=       122.00000    9    5
H     -42.827921702      1.045058261    -47.488351401
H     -38.845804029     21.497464754     52.601423218
O       5.500016690     -1.515232498     -0.330563782
           3
  t=       122.25000    9    5
H     -42.918501064      1.047202052    -47.589096774
H     -38.927589069     21.542798798     52.712512211
O       5.510877233     -1.518224046     -0.331215531
           3
  t=       122.50000    9    5
H     -43.009081801      1.049345750    -47.689844261
H     -39.009375064     21.588133517     52.823603185
O       5.521737923     -1.521215630     -0.331867273
           3
  t=       122.75000    9    5
H     -43.099663908      1.051489356    -47.790593855
H     -39.091162009     21.633468910     52.934696132
O       5.532598759     -1.524207251     -0.332519005
           3
  t=       123.00000    9    5
H     -43.190247379      1.053632869    -47.891345546
H     -39.172949902     21.678804974     53.045791044
O       5.543459741     -1.527198909     -0.333170730
           3
  t=       123.25000    9    5
H     -43.280832209      1.055776291    -47.992099325
H     -39.254738736     21.724141705     53.156887913
O       5.554320868     -1.530190603     -0.333822446
           3
  t=       123.50000    9    5
H     -43.371418392      1.057919621    -48.092855184
H     -39.336528510     21.769479101     53.267986730
O       5.565182139     -1.533182333     -0.334474154
           3
  t=       123.75000    9    5
H     -43.462005922      1.060062860    -48.193613115
H     -39.418319219     21.814817160     53.379087488
O       5.576043554     -1.536174099     -0.335125853
           3
  t=       124.00000    9    5
H     -43.552594794      1.062206008    -48.294373108
H     -39.500110858     21.860155878     53.490190178
O       5.586905112     -1.539165901     -0.335777545
           3
  t=       124.25000    9    5
H     -43.643185002      1.064349065    -48.395135155
H     -39.581903425     21.905495253     53.601294792
O       5.597766812     -1.542157738     -0.336429228
           3
  t=       124.50000    9    5
H     -43.733776540      1.066492033    -48.495899247
H     -39.663696915     21.950835281     53.712401323
O       5.608628655     -1.545149611     -0.337080903
           3
  t=       124.75000    9    5
H     -43.824369403      1.068634911    -48.596665377
H     -39.745491325     21.996175962     53.823509762
O       5.619490639     -1.548141520     -0.337732570
           3
  t=       125.00000    9    5
H     -43.914963586      1.070777700    -48.697433535
H     -39.827286650     22.041517290     53.934620102
O       5.630352764     -1.551133463     -0.338384229
           3
  t=       125.25000    9    5
H     -44.005559083      1.072920400    -48.798203714
H     -39.909082887     22.086859265     54.045732335
O       5.641215029     -1.554125442     -0.339035880
           3
  t=       125.50000    9    5
H     -44.096155889      1.075063011    -48.898975904
H     -39.990880033     22.132201884     54.156846453
O       5.652077434     -1.557117456     -0.339687523
           3
  t=       125.75000    9    5
H     -44.186753998      1.077205534    -48.999750099
H     -40.072678083     22.177545143     54.267962448
O       5.662939978     -1.560109504     -0.340339158
           3
  t=       126.00000    9    5
H     -44.277353404      1.079347970    -49.100526289
H     -40.154477034     22.222889040     54.379080313
O       5.673802661     -1.563101588     -0.340990785
           3
  t=       126.25000    9    5
H     -44.367954104      1.081490317    -49.201304467
H     -40.236276882     22.268233572     54.490200040
O       5.684665481     -1.566093705     -0.341642404
           3
  t=       126.50000    9    5
H     -44.458556091      1.083632578    -49.302084624
H     -40.318077623     22.313578738     54.601321622
O       5.695528439     -1.569085857     -0.342294015
           3
  t=       126.75000    9    5
H     -44.549159360      1.085774752    -49.402866752
H     -40.399879254     22.358924534     54.712445051
O       5.706391534     -1.572078044     -0.342945618
           3
  t=       127.00000    9    5
H     -44.639763906      1.087916839    -49.503650844
H     -40.481681772     22.404270957     54.823570320
O       5.717254765     -1.575070264     -0.343597214
           3
  t=       127.25000    9    5
H     -44.730369724      1.090058841    -49.604436892
H     -40.563485172     22.449618006     54.934697420
O       5.728118132     -1.578062519     -0.344248802
           3
  t=       127.50000    9    5
H     -44.820976808      1.092200757    -49.705224887
H     -40.645289451     22.494965678     55.045826346
O       5.738981634     -1.581054807     -0.344900382
           3
  t=       127.75000    9    5
H     -44.911585154      1.094342587    -49.806014821
H     -40.727094606     22.540313970     55.156957088
O       5.749845271     -1.584047129     -0.345551954
           3
  t=       128.00000    9    5
H     -45.002194757      1.096484332    -49.906806688
H     -40.808900633     22.585662880     55.268089641
O       5.760709042     -1.587039485     -0.346203519
           3
  t=       128.25000    9    5
H     -45.092805610      1.098625992    -50.007600479
H     -40.890707528     22.631012405     55.379223997
O       5.771572946     -1.590031874     -0.346855076
           3
  t=       128.50000    9    5
H     -45.183417710      1.100767568    -50.108396186
H     -40.972515288     22.676362543     55.490360149
O       5.782436984     -1.593024296     -0.347506626
           3
  t=       128.75000    9    5
H     -45.274031052      1.102909060    -50.209193802
H     -41.054323910     22.721713291     55.601498089
O       5.793301153     -1.596016752     -0.348158168
           3
  t=       129.00000    9    5
H     -45.364645630      1.105050469    -50.309993319
H     -41.136133391     22.767064647     55.712637811
O       5.804165455     -1.599009240     -0.348809702
           3
  t=       129.25000    9    5
H     -45.455261439      1.107191793    -50.410794730
H     -41.217943725     22.812416609     55.823779307
O       5.815029889     -1.602001761     -0.349461229
           3
  t=       129.50000    9    5
H     -45.545878475      1.109333035    -50.511598027
H     -41.299754912     22.857769173     55.934922570
O       5.825894453     -1.604994316     -0.350112748
           3
  t=       129.75000    9    5
H     -45.636496732      1.111474194    -50.612403202
H     -41.381566946     22.903122339     56.046067594
O       5.836759148     -1.607986902     -0.350764260
           3
  t=       130.00000    9    5
H     -45.727116206      1.113615271    -50.713210249
H     -41.463379825     22.948476103     56.157214371
O       5.847623972     -1.610979522     -0.351415764
           3
  t=       130.25000    9    5
H     -45.817736892      1.115756265    -50.814019160
H     -41.545193545     22.993830463     56.268362894
O       5.858488926     -1.613972173     -0.352067261
           3
  t=       130.50000    9    5
H     -45.908358786      1.117897178    -50.914829927
H     -41.627008103     23.039185416     56.379513157
O       5.869354009     -1.616964857     -0.352718751
           3
  t=       130.75000    9    5
H     -45.998981882      1.120038010    -51.015642543
H     -41.708823496     23.084540961     56.490665153
O       5.880219220     -1.619957574     -0.353370233
           3
  t=       131.00000    9    5
H     -46.089606176      1.122178760    -51.116457001
H     -41.790639720     23.129897095     56.601818875
O       5.891084559     -1.622950322     -0.354021709
           3
  t=       131.25000    9    5
H     -46.180231662      1.124319429    -51.217273294
H     -41.872456772     23.175253816     56.712974316
O       5.901950026     -1.625943102     -0.354673176
           3
  t=       131.50000    9    5
H     -46.270858337      1.126460018    -51.318091414
H     -41.954274649     23.220611121     56.824131469
O       5.912815619     -1.628935913     -0.355324637
           3
  t=       131.75000    9    5
H     -46.361486196      1.128600526    -51.418911355
H     -42.036093348     23.265969008     56.935290328
O       5.923681338     -1.631928757     -0.355976090
           3
  t=       132.00000    9    5
H     -46.452115234      1.130740955    -51.519733109
H     -42.117912865     23.311327475     57.046450887
O       5.934547184     -1.634921631     -0.356627536
           3
  t=       132.25000    9    5
H     -46.542745446      1.132881304    -51.620556669
H     -42.199733197     23.356686520     57.157613138
O       5.945413155     -1.637914538     -0.357278975
           3
  t=       132.50000    9    5
H     -46.633376828      1.135021574    -51.721382029
H     -42.281554342     23.402046139     57.268777075
O       5.956279250     -1.640907475     -0.357930407
           3
  t=       132.75000    9    5
H     -46.724009375      1.137161765    -51.822209180
H     -42.363376296     23.447406333     57.379942691
O       5.967145470     -1.643900444     -0.358581832
           3
  t=       133.00000    9    5
H     -46.814643084      1.139301877    -51.923038117
H     -42.445199055     23.492767097     57.491109981
O       5.978011814     -1.646893443     -0.359233249
           3
  t=       133.25000    9    5
H     -46.905277948      1.141441911    -52.023868833
H     -42.527022617     23.538128430     57.602278937
O       5.988878282     -1.649886474     -0.359884660
           3
  t=       133.50000    9    5
H     -46.995913965      1.143581867    -52.124701320
H     -42.608846979     23.583490329     57.713449553
O       5.999744872     -1.652879535     -0.360536064
           3
  t=       133.75000    9    5
H     -47.086551129      1.145721745    -52.225535572
H     -42.690672137     23.628852793     57.824621823
O       6.010611585     -1.655872627     -0.361187460
           3
  t=       134.00000    9    5
H     -47.177189436      1.147861545    -52.326371582
H     -42.772498089     23.674215818     57.935795741
O       6.021478420     -1.658865750     -0.361838850
           3
  t=       134.25000    9    5
H     -47.267828881      1.150001268    -52.427209343
H     -42.854324832     23.719579404     58.046971300
O       6.032345377     -1.661858903     -0.362490233
           3
  t=       134.50000    9    5
H     -47.358469461      1.152140915    -52.528048848
H     -42.936152362     23.764943548     58.158148493
O       6.043212454     -1.664852086     -0.363141608
           3
  t=       134.75000    9    5
H     -47.449111171      1.154280484    -52.628890092
H     -43.017980676     23.810308248     58.269327316
O       6.054079652     -1.667845299     -0.363792977
           3
  t=       135.00000    9    5
H     -47.539754006      1.156419978    -52.729733067
H     -43.099809771     23.855673501     58.380507761
O       6.064946971     -1.670838543     -0.364444339
           3
  t=       135.25000    9    5
H     -47.630397963      1.158559395    -52.830577767
H     -43.181639646     23.901039306     58.491689822
O       6.075814409     -1.673831816     -0.365095695
           3
  t=       135.50000    9    5
H     -47.721043037      1.160698737    -52.931424185
H     -43.263470295     23.946405661     58.602873493
O       6.086681966     -1.676825120     -0.365747043
           3
  t=       135.75000    9    5
H     -47.811689224      1.162838003    -53.032272314
H     -43.345301718     23.991772562     58.714058769
O       6.097549642     -1.679818453     -0.366398385
           3
  t=       136.00000    9    5
H     -47.902336519      1.164977194    -53.133122149
H     -43.427133910     24.037140010     58.825245643
O       6.108417437     -1.682811815     -0.367049719
           3
  t=       136.25000    9    5
H     -47.992984919      1.167116310    -53.233973682
H     -43.508966868     24.082508000     58.936434109
O       6.119285349     -1.685805207     -0.367701048
           3
  t=       136.50000    9    5
H     -48.083634419      1.169255352    -53.334826908
H     -43.590800591     24.127876532     59.047624161
O       6.130153379     -1.688798629     -0.368352369
           3
  t=       136.75000    9    5
H     -48.174285015      1.171394319    -53.435681820
H     -43.672635075     24.173245603     59.158815793
O       6.141021526     -1.691792080     -0.369003684
           3
  t=       137.00000    9    5
H     -48.264936703      1.173533212    -53.536538412
H     -43.754470317     24.218615211     59.270008999
O       6.151889789     -1.694785560     -0.369654992
           3
  t=       137.25000    9    5
H     -48.355589479      1.175672032    -53.637396677
H     -43.836306314     24.263985354     59.381203773
O       6.162758169     -1.697779069     -0.370306294
           3
  t=       137.50000    9    5
H     -48.446243339      1.177810777    -53.738256610
H     -43.918143063     24.309356031     59.492400110
O       6.173626664     -1.700772607     -0.370957588
           3
  t=       137.75000    9    5
H     -48.536898278      1.179949450    -53.839118203
H     -43.999980563     24.354727238     59.603598004
O       6.184495274     -1.703766174     -0.371608877
           3
  t=       138.00000    9    5
H     -48.627554293      1.182088050    -53.939981451
H     -44.081818809     24.400098975     59.714797449
O       6.195364000     -1.706759770     -0.372260159
           3
  t=       138.25000    9    5
H     -48.718211380      1.184226577    -54.040846347
H     -44.163657799     24.445471239     59.825998439
O       6.206232839     -1.709753394     -0.372911434
           3
  t=       138.50000    9    5
H     -48.808869535      1.186365031    -54.141712886
H     -44.245497531     24.490844029     59.937200968
O       6.217101793     -1.712747047     -0.373562703
           3
  t=       138.75000    9    5
H     -48.899528753      1.188503413    -54.242581062
H     -44.327338002     24.536217341     60.048405031
O       6.227970861     -1.715740728     -0.374213965
           3
  t=       139.00000    9    5
H     -48.990189032      1.190641724    -54.343450868
H     -44.409179208     24.581591176     60.159610622
O       6.238840041     -1.718734438     -0.374865221
           3
  t=       139.25000    9    5
H     -49.080850366      1.192779962    -54.444322298
H     -44.491021147     24.626965529     60.270817735
O       6.249709334     -1.721728176     -0.375516470
           3
  t=       139.50000    9    5
H     -49.171512752      1.194918130    -54.545195347
H     -44.572863817     24.672340401     60.382026365
O       6.260578740     -1.724721942     -0.376167713
           3
  t=       139.75000    9    5
H     -49.262176186      1.197056226    -54.646070008
H     -44.654707215     24.717715788     60.493236506
O       6.271448257     -1.727715736     -0.376818950
           3
  t=       140.00000    9    5
H     -49.352840665      1.199194251    -54.746946275
H     -44.736551338     24.763091688     60.604448154
O       6.282317886     -1.730709558     -0.377470180
           3
  t=       140.25000    9    5
H     -49.443506184      1.201332206    -54.847824144
H     -44.818396183     24.808468101     60.715661301
O       6.293187626     -1.733703407     -0.378121404
           3
  t=       140.50000    9    5
H     -49.534172739      1.203470090    -54.948703607
H     -44.900241748     24.853845024     60.826875943
O       6.304057477     -1.736697285     -0.378772622
           3
  t=       140.75000    9    5
H     -49.624840328      1.205607905    -55.049584659
H     -44.982088031     24.899222455     60.938092075
O       6.314927438     -1.739691190     -0.379423834
           3
  t=       141.00000    9    5
H     -49.715508945      1.207745649    -55.150467294
H     -45.063935028     24.944600392     61.049309690
O       6.325797508     -1.742685122     -0.380075039
           3
  t=       141.25000    9    5
H     -49.806178588      1.209883324    -55.251351506
H     -45.145782737     24.989978834     61.160528784
O       6.336667689     -1.745679082     -0.380726238
           3
  t=       141.50000    9    5
H     -49.896849253      1.212020929    -55.352237291
H     -45.227631155     25.035357779     61.271749351
O       6.347537978     -1.748673069     -0.381377430
           3
  t=       141.75000    9    5
H     -49.987520935      1.214158466    -55.453124641
H     -45.309480280     25.080737224     61.382971386
O       6.358408376     -1.751667084     -0.382028617
           3
  t=       142.00000    9    5
H     -50.078193631      1.216295933    -55.554013552
H     -45.391330109     25.126117168     61.494194884
O       6.369278882     -1.754661125     -0.382679797
           3
  t=       142.25000    9    5
H     -50.168867338      1.218433332    -55.654904017
H     -45.473180640     25.171497610     61.605419838
O       6.380149496     -1.757655194     -0.383330972
           3
  t=       142.50000    9    5
H     -50.259542052      1.220570663    -55.755796031
H     -45.555031871     25.216878547     61.716646245
O       6.391020218     -1.760649289     -0.383982140
           3
  t=       142.75000    9    5
H     -50.350217769      1.222707925    -55.856689589
H     -45.636883798     25.262259978     61.827874099
O       6.401891047     -1.763643412     -0.384633302
           3
  t=       143.00000    9    5
H     -50.440894486      1.224845120    -55.957584685
H     -45.718736419     25.307641901     61.939103394
O       6.412761982     -1.766637561     -0.385284458
           3
  t=       143.25000    9    5
H     -50.531572199      1.226982247    -56.058481314
H     -45.800589731     25.353024313     62.050334125
O       6.423633024     -1.769631736     -0.385935608
           3
  t=       143.50000    9    5
H     -50.622250904      1.229119306    -56.159379469
H     -45.882443734     25.398407215     62.161566288
O       6.434504172     -1.772625938     -0.386586751
           3
  t=       143.75000    9    5
H     -50.712930598      1.231256298    -56.260279146
H     -45.964298422     25.443790603     62.272799878
O       6.445375425     -1.775620167     -0.387237889
           3
  t=       144.00000    9    5
H     -50.803611278      1.233393224    -56.361180339
H     -46.046153795     25.489174475     62.384034888
O       6.456246784     -1.778614422     -0.387889021
           3
  t=       144.25000    9    5
H     -50.894292939      1.235530083    -56.462083043
H     -46.128009850     25.534558831     62.495271314
O       6.467118247     -1.781608703     -0.388540147
           3
  t=       144.50000    9    5
H     -50.984975579      1.237666875    -56.562987252
H     -46.209866585     25.579943669     62.606509152
O       6.477989815     -1.784603010     -0.389191267
           3
  t=       144.75000    9    5
H     -51.075659193      1.239803601    -56.663892961
H     -46.291723996     25.625328986     62.717748395
O       6.488861487     -1.787597344     -0.389842381
           3
  t=       145.00000    9    5
H     -51.166343779      1.241940261    -56.764800165
H     -46.373582082     25.670714781     62.828989040
O       6.499733263     -1.790591703     -0.390493489
           3
  t=       145.25000    9    5
H     -51.257029333      1.244076855    -56.865708858
H     -46.455440841     25.716101053     62.940231081
O       6.510605142     -1.793586088     -0.391144592
           3
  t=       145.50000    9    5
H     -51.347715851      1.246213384    -56.966619036
H     -46.537300269     25.761487799     63.051474513
O       6.521477124     -1.796580499     -0.391795688
           3
  t=       145.75000    9    5
H     -51.438403331      1.248349848    -57.067530692
H     -46.619160365     25.806875019     63.162719331
O       6.532349208     -1.799574936     -0.392446779
           3
  t=       146.00000    9    5
H     -51.529091769      1.250486246    -57.168443822
H     -46.701021125     25.852262709     63.273965531
O       6.543221395     -1.802569398     -0.393097863
           3
  t=       146.25000    9    5
H     -51.619781160      1.252622580    -57.269358421
H     -46.782882549     25.897650870     63.385213108
O       6.554093684     -1.805563886     -0.393748942
           3
  t=       146.50000    9    5
H     -51.710471503      1.254758849    -57.370274483
H     -46.864744633     25.943039499     63.496462056
O       6.564966074     -1.808558399     -0.394400016
           3
  t=       146.75000    9    5
H     -51.801162794      1.256895053    -57.471192004
H     -46.946607376     25.988428594     63.607712371
O       6.575838566     -1.811552937     -0.395051083
           3
  t=       147.00000    9    5
H     -51.891855029      1.259031194    -57.572110978
H     -47.028470774     26.033818153     63.718964049
O       6.586711158     -1.814547501     -0.395702145
           3
  t=       147.25000    9    5
H     -51.982548205      1.261167270    -57.673031399
H     -47.110334826     26.079208176     63.830217084
O       6.597583851     -1.817542090     -0.396353201
           3
  t=       147.50000    9    5
H     -52.073242319      1.263303283    -57.773953265
H     -47.192199530     26.124598661     63.941471473
O       6.608456644     -1.820536704     -0.397004251
           3
  t=       147.75000    9    5
H     -52.163937367      1.265439232    -57.874876568
H     -47.274064882     26.169989606     64.052727209
O       6.619329537     -1.823531343     -0.397655296
           3
  t=       148.00000    9    5
H     -52.254633347      1.267575118    -57.975801304
H     -47.355930881     26.215381009     64.163984289
O       6.630202529     -1.826526007     -0.398306335
           3
  t=       148.25000    9    5
H     -52.345330255      1.269710941    -58.076727469
H     -47.437797525     26.260772868     64.275242707
O       6.641075620     -1.829520696     -0.398957368
           3
  t=       148.50000    9    5
H     -52.436028087      1.271846701    -58.177655056
H     -47.519664812     26.306165184     64.386502460
O       6.651948810     -1.832515409     -0.399608396
           3
  t=       148.75000    9    5
H     -52.526726842      1.273982399    -58.278584062
H     -47.601532738     26.351557952     64.497763542
O       6.662822099     -1.835510147     -0.400259418
           3
  t=       149.00000    9    5
H     -52.617426514      1.276118033    -58.379514482
H     -47.683401303     26.396951173     64.609025950
O       6.673695485     -1.838504910     -0.400910435
           3
  t=       149.25000    9    5
H     -52.708127102      1.278253606    -58.480446310
H     -47.765270503     26.442344845     64.720289678
O       6.684568969     -1.841499697     -0.401561446
           3
  t=       149.50000    9    5
H     -52.798828603      1.280389117    -58.581379542
H     -47.847140336     26.487738965     64.831554722
O       6.695442551     -1.844494508     -0.402212452
           3
  t=       149.75000    9    5
H     -52.889531012      1.282524566    -58.682314172
H     -47.929010802     26.533133533     64.942821077
O       6.706316230     -1.847489344     -0.402863452
           3
  t=       150.00000    9    5
H     -52.980234327      1.284659953    -58.783250197
H     -48.010881896     26.578528547     65.054088740
O       6.717190005     -1.850484204     -0.403514446
           3
  t=       150.25000    9    5
H     -53.070938545      1.286795279    -58.884187612
H     -48.092753618     26.623924005     65.165357705
O       6.728063877     -1.853479088     -0.404165435
           3
  t=       150.50000    9    5
H     -53.161643663      1.288930544    -58.985126411
H     -48.174625964     26.669319906     65.276627968
O       6.738937845     -1.856473996     -0.404816419
           3
  t=       150.75000    9    5
H     -53.252349677      1.291065748    -59.086066590
H     -48.256498933     26.714716249     65.387899525
O       6.749811908     -1.859468928     -0.405467397
           3
  t=       151.00000    9    5
H     -53.343056585      1.293200891    -59.187008144
H     -48.338372523     26.760113031     65.499172371
O       6.760686067     -1.862463884     -0.406118370
           3
  t=       151.25000    9    5
H     -53.433764384      1.295335973    -59.287951069
H     -48.420246732     26.805510252     65.610446502
O       6.771560322     -1.865458864     -0.406769337
           3
  t=       151.50000    9    5
H     -53.524473070      1.297470996    -59.388895360
H     -48.502121557     26.850907910     65.721721914
O       6.782434670     -1.868453868     -0.407420299
           3
  t=       151.75000    9    5
H     -53.615182641      1.299605958    -59.489841012
H     -48.583996997     26.896306003     65.832998602
O       6.793309114     -1.871448895     -0.408071256
           3
  t=       152.00000    9    5
H     -53.705893093      1.301740860    -59.590788021
H     -48.665873049     26.941704530     65.944276562
O       6.804183651     -1.874443946     -0.408722207
           3
  t=       152.25000    9    5
H     -53.796604424      1.303875702    -59.691736382
H     -48.747749711     26.987103490     66.055555790
O       6.815058283     -1.877439020     -0.409373153
           3
  t=       152.50000    9    5
H     -53.887316630      1.306010485    -59.792686091
H     -48.829626981     27.032502881     66.166836281
O       6.825933007     -1.880434118     -0.410024094
           3
  t=       152.75000    9    5
H     -53.978029709      1.308145208    -59.893637142
H     -48.911504858     27.077902702     66.278118032
O       6.836807825     -1.883429239     -0.410675029
           3
  t=       153.00000    9    5
H     -54.068743658      1.310279872    -59.994589533
H     -48.993383339     27.123302950     66.389401037
O       6.847682736     -1.886424383     -0.411325959
           3
  t=       153.25000    9    5
H     -54.159458473      1.312414478    -60.095543257
H     -49.075262422     27.168703626     66.500685293
O       6.858557740     -1.889419550     -0.411976884
           3
  t=       153.50000    9    5
H     -54.250174153      1.314549024    -60.196498312
H     -49.157142105     27.214104727     66.611970796
O       6.869432835     -1.892414741     -0.412627804
           3
  t=       153.75000    9    5
H     -54.340890693      1.316683512    -60.297454691
H     -49.239022386     27.259506251     66.723257542
O       6.880308023     -1.895409954     -0.413278718
           3
  t=       154.00000    9    5
H     -54.431608092      1.318817942    -60.398412392
H     -49.320903264     27.304908199     66.834545526
O       6.891183302     -1.898405191     -0.413929627
           3
  t=       154.25000    9    5
H     -54.522326346      1.320952313    -60.499371408
H     -49.402784735     27.350310567     66.945834744
O       6.902058673     -1.901400450     -0.414580532
           3
  t=       154.50000    9    5
H     -54.613045452      1.323086627    -60.600331737
H     -49.484666799     27.395713355     67.057125192
O       6.912934134     -1.904395732     -0.415231430
           3
  t=       154.75000    9    5
H     -54.703765408      1.325220882    -60.701293374
H     -49.566549453     27.441116561     67.168416866
O       6.923809687     -1.907391037     -0.415882324
           3
  t=       155.00000    9    5
H     -54.794486211      1.327355080    -60.802256314
H     -49.648432696     27.486520185     67.279709763
O       6.934685329     -1.910386365     -0.416533213
           3
  t=       155.25000    9    5
H     -54.885207858      1.329489221    -60.903220553
H     -49.730316524     27.531924224     67.391003877
O       6.945561062     -1.913381715     -0.417184096
           3
  t=       155.50000    9    5
H     -54.975930346      1.331623304    -61.004186087
H     -49.812200937     27.577328677     67.502299206
O       6.956436885     -1.916377087     -0.417834975
           3
  t=       155.75000    9    5
H     -55.066653672      1.333757330    -61.105152912
H     -49.894085933     27.622733543     67.613595744
O       6.967312797     -1.919372482     -0.418485848
           3
  t=       156.00000    9    5
H     -55.157377835      1.335891300    -61.206121023
H     -49.975971509     27.668138820     67.724893489
O       6.978188799     -1.922367900     -0.419136716
           3
  t=       156.25000    9    5
H     -55.248102830      1.338025213    -61.307090416
H     -50.057857664     27.713544508     67.836192436
O       6.989064889     -1.925363339     -0.419787580
           3
  t=       156.50000    9    5
H     -55.338828655      1.340159069    -61.408061086
H     -50.139744395     27.758950604     67.947492580
O       6.999941068     -1.928358801     -0.420438438
           3
  t=       156.75000    9    5
H     -55.429555308      1.342292869    -61.509033031
H     -50.221631702     27.804357108     68.058793920
O       7.010817335     -1.931354285     -0.421089291
           3
  t=       157.00000    9    5
H     -55.520282785      1.344426613    -61.610006245
H     -50.303519581     27.849764018     68.170096449
O       7.021693691     -1.934349791     -0.421740139
           3
  t=       157.25000    9    5
H     -55.611011085      1.346560300    -61.710980725
H     -50.385408032     27.895171332     68.281400165
O       7.032570134     -1.937345319     -0.422390982
           3
  t=       157.50000    9    5
H     -55.701740204      1.348693933    -61.811956466
H     -50.467297051     27.940579050     68.392705064
O       7.043446665     -1.940340869     -0.423041821
           3
  t=       157.75000    9    5
H     -55.792470140      1.350827509    -61.912933464
H     -50.549186639     27.985987171     68.504011141
O       7.054323283     -1.943336440     -0.423692654
           3
  t=       158.00000    9    5
H     -55.883200890      1.352961030    -62.013911715
H     -50.631076791     28.031395692     68.615318394
O       7.065199988     -1.946332034     -0.424343483
           3
  t=       158.25000    9    5
H     -55.973932451      1.355094496    -62.114891215
H     -50.712967508     28.076804613     68.726626817
O       7.076076779     -1.949327649     -0.424994306
           3
  t=       158.50000    9    5
H     -56.064664821      1.357227907    -62.215871961
H     -50.794858787     28.122213932     68.837936408
O       7.086953657     -1.952323286     -0.425645125
           3
  t=       158.75000    9    5
H     -56.155397997      1.359361263    -62.316853947
H     -50.876750625     28.167623648     68.949247163
O       7.097830621     -1.955318944     -0.426295938
           3
  t=       159.00000    9    5
H     -56.246131977      1.361494564    -62.417837170
H     -50.958643022     28.213033760     69.060559078
O       7.108707671     -1.958314624     -0.426946747
           3
  t=       159.25000    9    5
H     -56.336866758      1.363627811    -62.518821627
H     -51.040535975     28.258444266     69.171872149
O       7.119584806     -1.961310325     -0.427597551
           3
  t=       159.50000    9    5
H     -56.427602337      1.365761003    -62.619807312
H     -51.122429484     28.303855166     69.283186372
O       7.130462027     -1.964306048     -0.428248351
           3
  t=       159.75000    9    5
H     -56.518338712      1.367894141    -62.720794223
H     -51.204323545     28.349266457     69.394501744
O       7.141339333     -1.967301792     -0.428899145
           3
  t=       160.00000    9    5
H     -56.609075880      1.370027225    -62.821782355
H     -51.286218157     28.394678139     69.505818261
O       7.152216723     -1.970297557     -0.429549935
           3
  t=       160.25000    9    5
H     -56.699813839      1.372160256    -62.922771704
H     -51.368113319     28.440090211     69.617135920
O       7.163094198     -1.973293343     -0.430200720
           3
  t=       160.50000    9    5
H     -56.790552586      1.374293232    -63.023762266
H     -51.450009028     28.485502670     69.728454716
O       7.173971757     -1.976289150     -0.430851500
           3
  t=       160.75000    9    5
H     -56.881292119      1.376426155    -63.124754039
H     -51.531905283     28.530915517     69.839774647
O       7.184849400     -1.979284979     -0.431502275
           3
  t=       161.00000    9    5
H     -56.972032435      1.378559025    -63.225747017
H     -51.613802083     28.576328749     69.951095708
O       7.195727126     -1.982280828     -0.432153046
           3
  t=       161.25000    9    5
H     -57.062773532      1.380691842    -63.326741196
H     -51.695699425     28.621742366     70.062417896
O       7.206604936     -1.985276698     -0.432803811
           3
  t=       161.50000    9    5
H     -57.153515407      1.382824605    -63.427736574
H     -51.777597307     28.667156366     70.173741208
O       7.217482829     -1.988272589     -0.433454573
           3
  t=       161.75000    9    5
H     -57.244258058      1.384957316    -63.528733146
H     -51.859495729     28.712570749     70.285065640
O       7.228360805     -1.991268501     -0.434105329
           3
  t=       162.00000    9    5
H     -57.335001482      1.387089974    -63.629730909
H     -51.941394688     28.757985512     70.396391188
O       7.239238863     -1.994264433     -0.434756081
           3
  t=       162.25000    9    5
H     -57.425745677      1.389222580    -63.730729858
H     -52.023294182     28.803400654     70.507717848
O       7.250117004     -1.997260386     -0.435406828
           3
  t=       162.50000    9    5
H     -57.516490640      1.391355133    -63.831729991
H     -52.105194211     28.848816175     70.619045618
O       7.260995226     -2.000256360     -0.436057571
           3
  t=       162.75000    9    5
H     -57.607236370      1.393487634    -63.932731302
H     -52.187094771     28.894232074     70.730374494
O       7.271873531     -2.003252354     -0.436708308
           3
  t=       163.00000    9    5
H     -57.697982863      1.395620083    -64.033733789
H     -52.268995863     28.939648348     70.841704473
O       7.282751917     -2.006248368     -0.437359042
           3
  t=       163.25000    9    5
H     -57.788730117      1.397752480    -64.134737449
H     -52.350897483     28.985064998     70.953035550
O       7.293630384     -2.009244403     -0.438009770
           3
  t=       163.50000    9    5
H     -57.879478130      1.399884826    -64.235742276
H     -52.432799630     29.030482021     71.064367723
O       7.304508933     -2.012240458     -0.438660495
           3
  t=       163.75000    9    5
H     -57.970226899      1.402017120    -64.336748268
H     -52.514702303     29.075899417     71.175700987
O       7.315387562     -2.015236533     -0.439311214
           3
  t=       164.00000    9    5
H     -58.060976422      1.404149363    -64.437755421
H     -52.596605500     29.121317184     71.287035341
O       7.326266272     -2.018232629     -0.439961929
           3
  t=       164.25000    9    5
H     -58.151726697      1.406281554    -64.538763731
H     -52.678509219     29.166735321     71.398370779
O       7.337145062     -2.021228744     -0.440612639
           3
  t=       164.50000    9    5
H     -58.242477721      1.408413694    -64.639773194
H     -52.760413459     29.212153828     71.509707300
O       7.348023932     -2.024224880     -0.441263345
           3
  t=       164.75000    9    5
H     -58.333229493      1.410545784    -64.740783808
H     -52.842318218     29.257572702     71.621044899
O       7.358902881     -2.027221035     -0.441914047
           3
  t=       165.00000    9    5
H     -58.423982009      1.412677823    -64.841795569
H     -52.924223495     29.302991943     71.732383573
O       7.369781911     -2.030217211     -0.442564744
           3
  t=       165.25000    9    5
H     -58.514735267      1.414809811    -64.942808472
H     -53.006129287     29.348411550     71.843723320
O       7.380661019     -2.033213406     -0.443215436
           3
  t=       165.50000    9    5
H     -58.605489265      1.416941749    -65.043822515
H     -53.088035594     29.393831522     71.955064134
O       7.391540207     -2.036209621     -0.443866124
           3
  t=       165.75000    9    5
H     -58.696244002      1.419073636    -65.144837694
H     -53.169942413     29.439251857     72.066406014
O       7.402419473     -2.039205856     -0.444516808
           3
  t=       166.00000    9    5
H     -58.786999473      1.421205473    -65.245854005
H     -53.251849744     29.484672554     72.177748956
O       7.413298818     -2.042202111     -0.445167487
           3
  t=       166.25000    9    5
H     -58.877755678      1.423337261    -65.346871445
H     -53.333757584     29.530093612     72.289092957
O       7.424178242     -2.045198385     -0.445818161
           3
  t=       166.50000    9    5
H     -58.968512614      1.425468998    -65.447890011
H     -53.415665932     29.575515031     72.400438013
O       7.435057743     -2.048194679     -0.446468831
           3
  t=       166.75000    9    5
H     -59.059270278      1.427600686    -65.548909699
H     -53.497574786     29.620936808     72.511784122
O       7.445937322     -2.051190992     -0.447119497
           3
  t=       167.00000    9    5
H     -59.150028669      1.429732325    -65.649930505
H     -53.579484145     29.666358943     72.623131279
O       7.456816979     -2.054187325     -0.447770159
           3
  t=       167.25000    9    5
H     -59.240787784      1.431863914    -65.750952427
H     -53.661394008     29.711781435     72.734479482
O       7.467696713     -2.057183677     -0.448420816
           3
  t=       167.50000    9    5
H     -59.331547622      1.433995454    -65.851975460
H     -53.743304372     29.757204283     72.845828728
O       7.478576524     -2.060180048     -0.449071469
           3
  t=       167.75000    9    5
H     -59.422308179      1.436126944    -65.952999602
H     -53.825215237     29.802627486     72.957179013
O       7.489456412     -2.063176439     -0.449722117
           3
  t=       168.00000    9    5
H     -59.513069453      1.438258386    -66.054024848
H     -53.907126600     29.848051041     73.068530335
O       7.500336377     -2.066172848     -0.450372761
           3
  t=       168.25000    9    5
H     -59.603831443      1.440389779    -66.155051197
H     -53.989038460     29.893474950     73.179882690
O       7.511216418     -2.069169277     -0.451023401
           3
  t=       168.50000    9    5
H     -59.694594147      1.442521124    -66.256078643
H     -54.070950816     29.938899209     73.291236074
O       7.522096535     -2.072165725     -0.451674036
           3
  t=       168.75000    9    5
H     -59.785357561      1.444652420    -66.357107185
H     -54.152863666     29.984323819     73.402590486
O       7.532976728     -2.075162192     -0.452324667
           3
  t=       169.00000    9    5
H     -59.876121685      1.446783667    -66.458136818
H     -54.234777009     30.029748779     73.513945921
O       7.543856997     -2.078158678     -0.452975294
           3
  t=       169.25000    9    5
H     -59.966886515      1.448914867    -66.559167539
H     -54.316690843     30.075174086     73.625302377
O       7.554737342     -2.081155183     -0.453625917
           3
  t=       169.50000    9    5
H     -60.057652049      1.451046018    -66.660199346
H     -54.398605167     30.120599741     73.736659851
O       7.565617761     -2.084151707     -0.454276535
           3
  t=       169.75000    9    5
H     -60.148418287      1.453177122    -66.761232234
H     -54.480519979     30.166025742     73.848018339
O       7.576498256     -2.087148249     -0.454927149
           3
  t=       170.00000    9    5
H     -60.239185224      1.455308177    -66.862266201
H     -54.562435278     30.211452087     73.959377839
O       7.587378826     -2.090144810     -0.455577759
           3
  t=       170.25000    9    5
H     -60.329952860      1.457439186    -66.963301243
H     -54.644351062     30.256878777     74.070738347
O       7.598259470     -2.093141390     -0.456228365
           3
  t=       170.50000    9    5
H     -60.420721192      1.459570146    -67.064337357
H     -54.726267330     30.302305810     74.182099860
O       7.609140188     -2.096137989     -0.456878966
           3
  t=       170.75000    9    5
H     -60.511490218      1.461701060    -67.165374540
H     -54.808184080     30.347733185     74.293462376
O       7.620020981     -2.099134606     -0.457529564
           3
  t=       171.00000    9    5
H     -60.602259937      1.463831926    -67.266412788
H     -54.890101311     30.393160900     74.404825891
O       7.630901847     -2.102131242     -0.458180157
           3
  t=       171.25000    9    5
H     -60.693030345      1.465962745    -67.367452099
H     -54.972019022     30.438588956     74.516190403
O       7.641782787     -2.105127896     -0.458830746
           3
  t=       171.50000    9    5
H     -60.783801441      1.468093517    -67.468492470
H     -55.053937211     30.484017351     74.627555908
O       7.652663801     -2.108124568     -0.459481331
           3
  t=       171.75000    9    5
H     -60.874573222      1.470224243    -67.569533896
H     -55.135855876     30.529446083     74.738922404
O       7.663544888     -2.111121259     -0.460131911
           3
  t=       172.00000    9    5
H     -60.965345688      1.472354921    -67.670576376
H     -55.217775017     30.574875152     74.850289887
O       7.674426048     -2.114117968     -0.460782488
           3
  t=       172.25000    9    5
H     -61.056118835      1.474485554    -67.771619905
H     -55.299694632     30.620304558     74.961658355
O       7.685307280     -2.117114695     -0.461433060
           3
  t=       172.50000    9    5
H     -61.146892662      1.476616140    -67.872664481
H     -55.381614718     30.665734298     75.073027805
O       7.696188586     -2.120111441     -0.462083629
           3
  t=       172.75000    9    5
H     -61.237667167      1.478746679    -67.973710100
H     -55.463535276     30.711164372     75.184398233
O       7.707069963     -2.123108204     -0.462734193
           3
  t=       173.00000    9    5
H     -61.328442347      1.480877173    -68.074756761
H     -55.545456304     30.756594779     75.295769638
O       7.717951413     -2.126104986     -0.463384753
           3
  t=       173.25000    9    5
H     -61.419218201      1.483007621    -68.175804458
H     -55.627377800     30.802025518     75.407142015
O       7.728832935     -2.129101786     -0.464035309
           3
  t=       173.50000    9    5
H     -61.509994727      1.485138023    -68.276853190
H     -55.709299762     30.847456588     75.518515363
O       7.739714528     -2.132098604     -0.464685861
           3
  t=       173.75000    9    5
H     -61.600771922      1.487268379    -68.377902954
H     -55.791222191     30.892887988     75.629889678
O       7.750596193     -2.135095439     -0.465336409
           3
  t=       174.00000    9    5
H     -61.691549785      1.489398689    -68.478953746
H     -55.873145083     30.938319716     75.741264958
O       7.761477930     -2.138092293     -0.465986954
           3
  t=       174.25000    9    5
H     -61.782328314      1.491528955    -68.580005563
H     -55.955068438     30.983751773     75.852641199
O       7.772359737     -2.141089164     -0.466637494
           3
  t=       174.50000    9    5
H     -61.873107507      1.493659174    -68.681058402
H     -56.036992254     31.029184157     75.964018399
O       7.783241616     -2.144086053     -0.467288030
           3
  t=       174.75000    9    5
H     -61.963887361      1.495789349    -68.782112261
H     -56.118916531     31.074616868     76.075396555
O       7.794123565     -2.147082960     -0.467938562
           3
  t=       175.00000    9    5
H     -62.054667876      1.497919479    -68.883167136
H     -56.200841266     31.120049903     76.186775665
O       7.805005584     -2.150079884     -0.468589090
           3
  t=       175.25000    9    5
H     -62.145449048      1.500049564    -68.984223025
H     -56.282766458     31.165483263     76.298155725
O       7.815887674     -2.153076826     -0.469239614
           3
  t=       175.50000    9    5
H     -62.236230877      1.502179604    -69.085279924
H     -56.364692107     31.210916945     76.409536732
O       7.826769834     -2.156073786     -0.469890134
           3
  t=       175.75000    9    5
H     -62.327013360      1.504309599    -69.186337830
H     -56.446618210     31.256350951     76.520918685
O       7.837652064     -2.159070763     -0.470540650
           3
  t=       176.00000    9    5
H     -62.417796495      1.506439550    -69.287396741
H     -56.528544766     31.301785277     76.632301580
O       7.848534363     -2.162067757     -0.471191163
           3
  t=       176.25000    9    5
H     -62.508580280      1.508569457    -69.388456654
H     -56.610471775     31.347219924     76.743685414
O       7.859416732     -2.165064769     -0.471841671
           3
  t=       176.50000    9    5
H     -62.599364714      1.510699319    -69.489517565
H     -56.692399234     31.392654891     76.855070185
O       7.870299170     -2.168061798     -0.472492175
           3
  t=       176.75000    9    5
H     -62.690149794      1.512829137    -69.590579472
H     -56.774327143     31.438090177     76.966455890
O       7.881181677     -2.171058845     -0.473142676
           3
  t=       177.00000    9    5
H     -62.780935519      1.514958911    -69.691642373
H     -56.856255500     31.483525780     77.077842527
O       7.892064253     -2.174055908     -0.473793173
           3
  t=       177.25000    9    5
H     -62.871721887      1.517088642    -69.792706263
H     -56.938184304     31.528961699     77.189230092
O       7.902946898     -2.177052989     -0.474443666
           3
  t=       177.50000    9    5
H     -62.962508896      1.519218328    -69.893771140
H     -57.020113553     31.574397935     77.300618583
O       7.913829611     -2.180050088     -0.475094154
           3
  t=       177.75000    9    5
H     -63.053296544      1.521347971    -69.994837002
H     -57.102043247     31.619834486     77.412007998
O       7.924712393     -2.183047203     -0.475744640
           3
  t=       178.00000    9    5
H     -63.144084830      1.523477570    -70.095903846
H     -57.183973383     31.665271351     77.523398333
O       7.935595242     -2.186044335     -0.476395121
           3
  t=       178.25000    9    5
H     -63.234873751      1.525607126    -70.196971668
H     -57.265903962     31.710708529     77.634789587
O       7.946478160     -2.189041484     -0.477045598
           3
  t=       178.50000    9    5
H     -63.325663305      1.527736639    -70.298040467
H     -57.347834981     31.756146019     77.746181755
O       7.957361145     -2.192038650     -0.477696072
           3
  t=       178.75000    9    5
H     -63.416453492      1.529866109    -70.399110238
H     -57.429766439     31.801583821     77.857574837
O       7.968244197     -2.195035834     -0.478346542
           3
  t=       179.00000    9    5
H     -63.507244308      1.531995535    -70.500180980
H     -57.511698335     31.847021933     77.968968829
O       7.979127317     -2.198033034     -0.478997008
           3
  t=       179.25000    9    5
H     -63.598035753      1.534124919    -70.601252689
H     -57.593630668     31.892460354     78.080363728
O       7.990010504     -2.201030250     -0.479647470
           3
  t=       179.50000    9    5
H     -63.688827824      1.536254260    -70.702325364
H     -57.675563436     31.937899085     78.191759533
O       8.000893758     -2.204027484     -0.480297929
           3
  t=       179.75000    9    5
H     -63.779620520      1.538383558    -70.803399000
H     -57.757496638     31.983338123     78.303156240
O       8.011777079     -2.207024734     -0.480948383
           3
  t=       180.00000    9    5
H     -63.870413838      1.540512814    -70.904473596
H     -57.839430274     32.028777468     78.414553847
O       8.022660466     -2.210022001     -0.481598834
           3
  t=       180.25000    9    5
H     -63.961207778      1.542642028    -71.005549149
H     -57.921364341     32.074217120     78.525952351
O       8.033543919     -2.213019285     -0.482249282
           3
  t=       180.50000    9    5
H     -64.052002337      1.544771199    -71.106625655
H     -58.003298839     32.119657076     78.637351750
O       8.044427439     -2.216016585     -0.482899725
           3
  t=       180.75000    9    5
H     -64.142797514      1.546900328    -71.207703113
H     -58.085233766     32.165097337     78.748752042
O       8.055311025     -2.219013901     -0.483550165
           3
  t=       181.00000    9    5
H     -64.233593306      1.549029415    -71.308781520
H     -58.167169121     32.210537902     78.860153223
O       8.066194676     -2.222011234     -0.484200601
           3
  t=       181.25000    9    5
H     -64.324389713      1.551158459    -71.409860872
H     -58.249104903     32.255978769     78.971555292
O       8.077078393     -2.225008584     -0.484851034
           3
  t=       181.50000    9    5
H     -64.415186732      1.553287463    -71.510941168
H     -58.331041111     32.301419938     79.082958245
O       8.087962175     -2.228005950     -0.485501462
           3
  t=       181.75000    9    5
H     -64.505984361      1.555416424    -71.612022404
H     -58.412977743     32.346861408     79.194362081
O       8.098846023     -2.231003332     -0.486151888
           3
  t=       182.00000    9    5
H     -64.596782600      1.557545344    -71.713104578
H     -58.494914799     32.392303178     79.305766796
O       8.109729935     -2.234000731     -0.486802309
           3
  t=       182.25000    9    5
H     -64.687581446      1.559674222    -71.814187687
H     -58.576852277     32.437745248     79.417172389
O       8.120613913     -2.236998145     -0.487452727
           3
  t=       182.50000    9    5
H     -64.778380897      1.561803059    -71.915271729
H     -58.658790175     32.483187616     79.528578857
O       8.131497955     -2.239995576     -0.488103141
           3
  t=       182.75000    9    5
H     -64.869180952      1.563931855    -72.016356702
H     -58.740728494     32.528630281     79.639986197
O       8.142382062     -2.242993023     -0.488753551
           3
  t=       183.00000    9    5
H     -64.959981609      1.566060610    -72.117442601
H     -58.822667231     32.574073243     79.751394407
O       8.153266233     -2.245990487     -0.489403958
           3
  t=       183.25000    9    5
H     -65.050782866      1.568189324    -72.218529426
H     -58.904606385     32.619516502     79.862803485
O       8.164150468     -2.248987966     -0.490054361
           3
  t=       183.50000    9    5
H     -65.141584723      1.570317996    -72.319617173
H     -58.986545956     32.664960055     79.974213428
O       8.175034767     -2.251985461     -0.490704761
           3
  t=       183.75000    9    5
H     -65.232387176      1.572446629    -72.420705840
H     -59.068485942     32.710403903     80.085624234
O       8.185919129     -2.254982973     -0.491355157
           3
  t=       184.00000    9    5
H     -65.323190225      1.574575220    -72.521795423
H     -59.150426342     32.755848044     80.197035900
O       8.196803556     -2.257980500     -0.492005550
           3
  t=       184.25000    9    5
H     -65.413993867      1.576703771    -72.622885922
H     -59.232367154     32.801292478     80.308448424
O       8.207688046     -2.260978043     -0.492655939
           3
  t=       184.50000    9    5
H     -65.504798102      1.578832281    -72.723977333
H     -59.314308378     32.846737204     80.419861804
O       8.218572599     -2.263975602     -0.493306324
           3
  t=       184.75000    9    5
H     -65.595602927      1.580960751    -72.825069653
H     -59.396250013     32.892182220     80.531276038
O       8.229457215     -2.266973177     -0.493956706
           3
  t=       185.00000    9    5
H     -65.686408341      1.583089181    -72.926162880
H     -59.478192057     32.937627527     80.642691122
O       8.240341894     -2.269970767     -0.494607084
           3
  t=       185.25000    9    5
H     -65.777214342      1.585217571    -73.027257012
H     -59.560134510     32.983073124     80.754107054
O       8.251226636     -2.272968373     -0.495257459
           3
  t=       185.50000    9    5
H     -65.868020929      1.587345920    -73.128352046
H     -59.642077369     33.028519009     80.865523833
O       8.262111440     -2.275965995     -0.495907830
           3
  t=       185.75000    9    5
H     -65.958828100      1.589474230    -73.229447980
H     -59.724020635     33.073965182     80.976941456
O       8.272996307     -2.278963633     -0.496558198
           3
  t=       186.00000    9    5
H     -66.049635853      1.591602500    -73.330544811
H     -59.805964305     33.119411642     81.088359921
O       8.283881236     -2.281961286     -0.497208562
           3
  t=       186.25000    9    5
H     -66.140444187      1.593730731    -73.431642536
H     -59.887908379     33.164858389     81.199779225
O       8.294766227     -2.284958954     -0.497858923
           3
  t=       186.50000    9    5
H     -66.231253100      1.595858921    -73.532741154
H     -59.969852856     33.210305421     81.311199365
O       8.305651280     -2.287956638     -0.498509280
           3
  t=       186.75000    9    5
H     -66.322062591      1.597987073    -73.633840662
H     -60.051797735     33.255752737     81.422620341
O       8.316536394     -2.290954338     -0.499159634
           3
  t=       187.00000    9    5
H     -66.412872658      1.600115185    -73.734941057
H     -60.133743013     33.301200338     81.534042149
O       8.327421570     -2.293952053     -0.499809984
           3
  t=       187.25000    9    5
H     -66.503683299      1.602243257    -73.836042336
H     -60.215688692     33.346648222     81.645464787
O       8.338306807     -2.296949783     -0.500460331
           3
  t=       187.50000    9    5
H     -66.594494513      1.604371291    -73.937144499
H     -60.297634768     33.392096388     81.756888253
O       8.349192106     -2.299947529     -0.501110674
           3
  t=       187.75000    9    5
H     -66.685306298      1.606499285    -74.038247541
H     -60.379581242     33.437544836     81.868312545
O       8.360077466     -2.302945290     -0.501761014
           3
  t=       188.00000    9    5
H     -66.776118653      1.608627241    -74.139351461
H     -60.461528112     33.482993564     81.979737660
O       8.370962886     -2.305943066     -0.502411351
           3
  t=       188.25000    9    5
H     -66.866931577      1.610755158    -74.240456257
H     -60.543475377     33.528442573     82.091163596
O       8.381848367     -2.308940858     -0.503061684
           3
  t=       188.50000    9    5
H     -66.957745067      1.612883036    -74.341561926
H     -60.625423036     33.573891861     82.202590351
O       8.392733909     -2.311938664     -0.503712014
           3
  t=       188.75000    9    5
H     -67.048559122      1.615010875    -74.442668465
H     -60.707371088     33.619341428     82.314017923
O       8.403619511     -2.314936486     -0.504362340
           3
  t=       189.00000    9    5
H     -67.139373740      1.617138676    -74.543775872
H     -60.789319532     33.664791273     82.425446310
O       8.414505173     -2.317934323     -0.505012663
           3
  t=       189.25000    9    5
H     -67.230188921      1.619266438    -74.644884146
H     -60.871268366     33.710241394     82.536875509
O       8.425390896     -2.320932175     -0.505662983
           3
  t=       189.50000    9    5
H     -67.321004662      1.621394162    -74.745993282
H     -60.953217590     33.755691792     82.648305518
O       8.436276678     -2.323930041     -0.506313299
           3
  t=       189.75000    9    5
H     -67.411820963      1.623521848    -74.847103281
H     -61.035167203     33.801142466     82.759736335
O       8.447162520     -2.326927923     -0.506963612
           3
  t=       190.00000    9    5
H     -67.502637821      1.625649496    -74.948214138
H     -61.117117204     33.846593414     82.871167958
O       8.458048421     -2.329925820     -0.507613921
           3
  t=       190.25000    9    5
H     -67.593455234      1.627777106    -75.049325852
H     -61.199067591     33.892044637     82.982600385
O       8.468934382     -2.332923731     -0.508264228
           3
  t=       190.50000    9    5
H     -67.684273203      1.629904678    -75.150438420
H     -61.281018364     33.937496133     83.094033613
O       8.479820402     -2.335921658     -0.508914530
           3
  t=       190.75000    9    5
H     -67.775091724      1.632032212    -75.251551840
H     -61.362969521     33.982947901     83.205467640
O       8.490706481     -2.338919599     -0.509564830
           3
  t=       191.00000    9    5
H     -67.865910797      1.634159709    -75.352666110
H     -61.444921062     34.028399942     83.316902465
O       8.501592619     -2.341917555     -0.510215126
           3
  t=       191.25000    9    5
H     -67.956730420      1.636287167    -75.453781228
H     -61.526872986     34.073852254     83.428338085
O       8.512478816     -2.344915526     -0.510865419
           3
  t=       191.50000    9    5
H     -68.047550592      1.638414589    -75.554897190
H     -61.608825290     34.119304836     83.539774497
O       8.523365072     -2.347913511     -0.511515709
           3
  t=       191.75000    9    5
H     -68.138371311      1.640541973    -75.656013996
H     -61.690777976     34.164757688     83.651211701
O       8.534251385     -2.350911511     -0.512165995
           3
  t=       192.00000    9    5
H     -68.229192575      1.642669319    -75.757131642
H     -61.772731040     34.210210809     83.762649694
O       8.545137758     -2.353909526     -0.512816278
           3
  t=       192.25000    9    5
H     -68.320014384      1.644796629    -75.858250127
H     -61.854684484     34.255664198     83.874088473
O       8.556024188     -2.356907555     -0.513466558
           3
  t=       192.50000    9    5
H     -68.410836735      1.646923901    -75.959369449
H     -61.936638304     34.301117855     83.985528037
O       8.566910676     -2.359905598     -0.514116835
           3
  t=       192.75000    9    5
H     -68.501659628      1.649051136    -76.060489604
H     -62.018592501     34.346571779     84.096968383
O       8.577797222     -2.362903657     -0.514767108
           3
  t=       193.00000    9    5
H     -68.592483061      1.651178335    -76.161610591
H     -62.100547073     34.392025969     84.208409510
O       8.588683826     -2.365901729     -0.515417378
           3
  t=       193.25000    9    5
H     -68.683307032      1.653305496    -76.262732408
H     -62.182502020     34.437480425     84.319851415
O       8.599570487     -2.368899816     -0.516067645
           3
  t=       193.50000    9    5
H     -68.774131541      1.655432621    -76.363855053
H     -62.264457341     34.482935145     84.431294096
O       8.610457206     -2.371897918     -0.516717909
           3
  t=       193.75000    9    5
H     -68.864956585      1.657559709    -76.464978523
H     -62.346413033     34.528390130     84.542737552
O       8.621343982     -2.374896033     -0.517368169
           3
  t=       194.00000    9    5
H     -68.955782163      1.659686761    -76.566102815
H     -62.428369097     34.573845378     84.654181780
O       8.632230815     -2.377894164     -0.518018426
           3
  t=       194.25000    9    5
H     -69.046608274      1.661813776    -76.667227929
H     -62.510325532     34.619300888     84.765626778
O       8.643117705     -2.380892308     -0.518668680
           3
  t=       194.50000    9    5
H     -69.137434916      1.663940755    -76.768353862
H     -62.592282336     34.664756661     84.877072545
O       8.654004652     -2.383890466     -0.519318931
           3
  t=       194.75000    9    5
H     -69.228262089      1.666067698    -76.869480611
H     -62.674239509     34.710212695     84.988519078
O       8.664891655     -2.386888639     -0.519969179
           3
  t=       195.00000    9    5
H     -69.319089790      1.668194605    -76.970608175
H     -62.756197050     34.755668990     85.099966375
O       8.675778715     -2.389886826     -0.520619423
           3
  t=       195.25000    9    5
H     -69.409918018      1.670321475    -77.071736551
H     -62.838154957     34.801125544     85.211414434
O       8.686665831     -2.392885027     -0.521269664
           3
  t=       195.50000    9    5
H     -69.500746772      1.672448310    -77.172865738
H     -62.920113229     34.846582358     85.322863253
O       8.697553003     -2.395883242     -0.521919903
           3
  t=       195.75000    9    5
H     -69.591576051      1.674575108    -77.273995732
H     -63.002071867     34.892039431     85.434312831
O       8.708440231     -2.398881471     -0.522570138
           3
  t=       196.00000    9    5
H     -69.682405853      1.676701871    -77.375126533
H     -63.084030868     34.937496762     85.545763164
O       8.719327515     -2.401879714     -0.523220369
           3
  t=       196.25000    9    5
H     -69.773236176      1.678828598    -77.476258138
H     -63.165990232     34.982954349     85.657214253
O       8.730214855     -2.404877971     -0.523870598
           3
  t=       196.50000    9    5
H     -69.864067020      1.680955290    -77.577390544
H     -63.247949958     35.028412194     85.768666093
O       8.741102251     -2.407876242     -0.524520824
           3
  t=       196.75000    9    5
H     -69.954898384      1.683081946    -77.678523751
H     -63.329910045     35.073870294     85.880118684
O       8.751989702     -2.410874527     -0.525171046
           3
  t=       197.00000    9    5
H     -70.045730264      1.685208567    -77.779657755
H     -63.411870492     35.119328650     85.991572023
O       8.762877208     -2.413872825     -0.525821266
           3
  t=       197.25000    9    5
H     -70.136562662      1.687335152    -77.880792554
H     -63.493831298     35.164787260     86.103026109
O       8.773764769     -2.416871138     -0.526471482
           3
  t=       197.50000    9    5
H     -70.227395574      1.689461702    -77.981928148
H     -63.575792462     35.210246124     86.214480940
O       8.784652386     -2.419869464     -0.527121695
           3
  t=       197.75000    9    5
H     -70.318229000      1.691588217    -78.083064533
H     -63.657753983     35.255705242     86.325936513
O       8.795540057     -2.422867804     -0.527771905
           3
  t=       198.00000    9    5
H     -70.409062938      1.693714697    -78.184201707
H     -63.739715861     35.301164612     86.437392827
O       8.806427783     -2.425866158     -0.528422112
           3
  t=       198.25000    9    5
H     -70.499897387      1.695841142    -78.285339669
H     -63.821678094     35.346624234     86.548849880
O       8.817315564     -2.428864525     -0.529072316
           3
  t=       198.50000    9    5
H     -70.590732346      1.697967552    -78.386478416
H     -63.903640681     35.392084108     86.660307669
O       8.828203399     -2.431862907     -0.529722517
           3
  t=       198.75000    9    5
H     -70.681567813      1.700093927    -78.487617947
H     -63.985603622     35.437544232     86.771766194
O       8.839091288     -2.434861301     -0.530372715
           3
  t=       199.00000    9    5
H     -70.772403788      1.702220268    -78.588758259
H     -64.067566916     35.483004606     86.883225452
O       8.849979232     -2.437859709     -0.531022910
           3
  t=       199.25000    9    5
H     -70.863240268      1.704346574    -78.689899351
H     -64.149530562     35.528465230     86.994685441
O       8.860867229     -2.440858131     -0.531673102
           3
  t=       199.50000    9    5
H     -70.954077253      1.706472845    -78.791041220
H     -64.231494558     35.573926103     87.106146160
O       8.871755281     -2.443856567     -0.532323291
           3
  t=       199.75000    9    5
H     -71.044914741      1.708599082    -78.892183864
H     -64.313458904     35.619387223     87.217607606
O       8.882643386     -2.446855015     -0.532973477
           3
  t=       200.00000    9    5
H     -71.135752731      1.710725285    -78.993327282
H     -64.395423599     35.664848592     87.329069778
O       8.893531545     -2.449853477     -0.533623659
