           3
  t=         0.00000    1    1
H      -0.227716167     -0.115120476     -0.814832668
H      -0.065699933      0.183337223      0.773206986
O       0.372308194     -0.099140742     -0.005767333
           3
  t=         0.25000    1    1
H      -0.228908732     -0.114480658     -0.813795393
H      -0.071189338      0.186208596      0.779449030
O       0.372729238     -0.099361950     -0.006225989
           3
  t=         0.50000    1    1
H      -0.233315514     -0.114518201     -0.819850206
H      -0.079262414      0.191550584      0.794028396
O       0.373515602     -0.099696150     -0.006763106
           3
  t=         0.75000    1    1
H      -0.240822779     -0.115218268     -0.832791292
H      -0.089690083      0.199193593      0.816433629
O       0.374645685     -0.100133590     -0.007359426
           3
  t=         1.00000    1    1
H      -0.251229034     -0.116557269     -0.852264180
H      -0.102178159      0.208917530      0.845998656
O       0.376088256     -0.100661888     -0.007995316
           3
  t=         1.25000    1    1
H      -0.264273975     -0.118504731     -0.877809735
H      -0.116420274      0.220487236      0.882002910
O       0.377807608     -0.101268149     -0.008654302
           3
  t=         1.50000    1    1
H      -0.279670997     -0.121025556     -0.908914487
H      -0.132138374      0.233680707      0.923752954
O       0.379768163     -0.101940594     -0.009325045
           3
  t=         1.75000    1    1
H      -0.297135824     -0.124082398     -0.945056833
H      -0.149104383      0.248305751      0.970633249
O       0.381937638     -0.102669467     -0.010001626
           3
  t=         2.00000    1    1
H      -0.316407396     -0.127637762     -0.985742552
H      -0.167145086      0.264205715      1.022126663
O       0.384288670     -0.103447260     -0.010682602
           3
  t=         2.25000    1    1
H      -0.337260531     -0.131655501     -1.030527415
H      -0.186136709      0.281257827      1.077813244
O       0.386799272     -0.104268516     -0.011369502
           3
  t=         2.50000    1    1
H      -0.359511509     -0.136101613     -1.079027900
H      -0.205995279      0.299367852      1.137357101
O       0.389452575     -0.105129438     -0.012065328
           3
  t=         2.75000    1    1
H      -0.383018084     -0.140944535     -1.130922645
H      -0.226666201      0.318463526      1.200488579
O       0.392236179     -0.106027462     -0.012773337
           3
  t=         3.00000    1    1
H      -0.407675464     -0.146155167     -1.185947703
H      -0.248114521      0.338488077      1.266986020
O       0.395141276     -0.106960845     -0.013496194
           3
  t=         3.25000    1    1
H      -0.433409823     -0.151706801     -1.243888305
H      -0.270316561      0.359394538      1.336659598
O       0.398161725     -0.107928310     -0.014235471
           3
  t=         3.50000    1    1
H      -0.460170798     -0.157575037     -1.304569262
H      -0.293253406      0.381141303      1.409338604
O       0.401293158     -0.108928773     -0.014991450
           3
  t=         3.75000    1    1
H      -0.487924176     -0.163737680     -1.367845495
H      -0.316906459      0.403689076      1.484862735
O       0.404532250     -0.109961157     -0.015763172
           3
  t=         4.00000    1    1
H      -0.516645523     -0.170174613     -1.433593594
H      -0.341254954      0.426999145      1.563077127
O       0.407876152     -0.111024289     -0.016548654
           3
  t=         4.25000    3    2
H      -0.546315139     -0.176867619     -1.501704827
H      -0.366274993      0.451032670      1.643830216
O       0.411322117     -0.112116871     -0.017345199
           3
  t=         4.50000    3    2
H      -0.576450698     -0.183686187     -1.570975783
H      -0.391596033      0.475399844      1.725765055
O       0.414816406     -0.113222564     -0.018143131
           3
  t=         4.75000    3    2
H      -0.607495913     -0.190729465     -1.642416822
H      -0.417532278      0.500412811      1.809946202
O       0.418406776     -0.114354789     -0.018945867
           3
  t=         5.00000    5    3
H      -0.639427753     -0.197983776     -1.715936098
H      -0.444052361      0.526033128      1.896233287
O       0.422089797     -0.115511986     -0.019750348
           3
  t=         5.25000    5    3
H      -0.671856537     -0.205324007     -1.790469355
H      -0.470872919      0.551933833      1.983454514
O       0.425823064     -0.116681436     -0.020549798
           3
  t=         5.50000    5    3
H      -0.705114302     -0.212850755     -1.866895950
H      -0.498211708      0.578367328      2.072515368
O       0.429641217     -0.117872704     -0.021345864
           3
  t=         5.75000    5    3
H      -0.739166755     -0.220552888     -1.945121860
H      -0.526035985      0.605298269      2.163291676
O       0.433540033     -0.119084265     -0.022136646
           3
  t=         6.00000    5    3
H      -0.773976777     -0.228419880     -2.025052365
H      -0.554313809      0.632692960      2.255665973
O       0.437515160     -0.120314659     -0.022920711
           3
  t=         6.25000    5    3
H      -0.809505454     -0.236441787     -2.106593193
H      -0.583014575      0.660519647      2.349528188
O       0.441562218     -0.121562512     -0.023697063
           3
  t=         6.50000    5    3
H      -0.845713163     -0.244609230     -2.189651801
H      -0.612109392      0.688748694      2.444776017
O       0.445676890     -0.122826547     -0.024465088
           3
  t=         6.75000    7    4
H      -0.882561041     -0.252913317     -2.274138842
H      -0.641571701      0.717352815      2.541315225
O       0.449855054     -0.124105605     -0.025224477
           3
  t=         7.00000    7    4
H      -0.919729289     -0.261276997     -2.359299813
H      -0.671214089      0.746130686      2.638440489
O       0.454064751     -0.125391856     -0.025978329
           3
  t=         7.25000    7    4
H      -0.957462148     -0.269761607     -2.445722748
H      -0.701174986      0.775234697      2.736689830
O       0.458330092     -0.126691037     -0.026723492
           3
  t=         7.50000    9    5
H      -0.995724837     -0.278360044     -2.533331608
H      -0.731433059      0.804643478      2.835990128
O       0.462647542     -0.128002249     -0.027460152
           3
  t=         7.75000    9    5
H      -1.034495095     -0.287063469     -2.622057729
H      -0.761973025      0.834336732      2.936265784
O       0.467014736     -0.129324771     -0.028187871
           3
  t=         8.00000    9    5
H      -1.073731956     -0.295867986     -2.711832349
H      -0.792772434      0.864297038      3.037463440
O       0.471427677     -0.130657749     -0.028907619
           3
  t=         8.25000    9    5
H      -1.113406957     -0.304767901     -2.802593766
H      -0.823814644      0.894507776      3.139526296
O       0.475883523     -0.132000496     -0.029619705
           3
  t=         8.50000    9    5
H      -1.153493634     -0.313757925     -2.894284634
H      -0.855084345      0.924953650      3.242402073
O       0.480379643     -0.133352381     -0.030324449
           3
  t=         8.75000    9    5
H      -1.193967421     -0.322833142     -2.986851689
H      -0.886567448      0.955620574      3.346042617
O       0.484913600     -0.134712826     -0.031022172
           3
  t=         9.00000    9    5
H      -1.234805532     -0.331988983     -3.080245471
H      -0.918250983      0.986495563      3.450403525
O       0.489483143     -0.136081302     -0.031713193
           3
  t=         9.25000    9    5
H      -1.275986837     -0.341221196     -3.174420042
H      -0.950122998      1.017566638      3.555443808
O       0.494086185     -0.137457320     -0.032397825
           3
  t=         9.50000    9    5
H      -1.317491745     -0.350525821     -3.269332730
H      -0.982172474      1.048822732      3.661125586
O       0.498720799     -0.138840433     -0.033076368
           3
  t=         9.75000    9    5
H      -1.359302087     -0.359899169     -3.364943873
H      -1.014389240      1.080253615      3.767413811
O       0.503385199     -0.140230230     -0.033749114
           3
  t=        10.00000    9    5
H      -1.401401006     -0.369337798     -3.461216589
H      -1.046763897      1.111849814      3.874276013
O       0.508077731     -0.141626330     -0.034416341
           3
  t=        10.25000    9    5
H      -1.443772853     -0.378838496     -3.558116550
H      -1.079287753      1.143602547      3.981682073
O       0.512796860     -0.143028382     -0.035078314
           3
  t=        10.50000    9    5
H      -1.486403090     -0.388398262     -3.655611788
H      -1.111952755      1.175503666      4.089604020
O       0.517541164     -0.144436061     -0.035735284
           3
  t=        10.75000    9    5
H      -1.529278198     -0.398014288     -3.753672498
H      -1.144751439      1.207545599      4.198015844
O       0.522309320     -0.145849069     -0.036387491
           3
  t=        11.00000    9    5
H      -1.572385601     -0.407683948     -3.852270875
H      -1.177676875      1.239721302      4.306893330
O       0.527100100     -0.147267126     -0.037035161
           3
  t=        11.25000    9    5
H      -1.615713580     -0.417404779     -3.951380949
H      -1.210722622      1.272024213      4.416213906
O       0.531912358     -0.148689973     -0.037678508
           3
  t=        11.50000    9    5
H      -1.659251213     -0.427174474     -4.050978444
H      -1.243882686      1.304448214      4.525956507
O       0.536745029     -0.150117372     -0.038317735
           3
  t=        11.75000    9    5
H      -1.702988304     -0.436990864     -4.151040646
H      -1.277151484      1.336987591      4.636101452
O       0.541597120     -0.151549098     -0.038953033
           3
  t=        12.00000    9    5
H      -1.746915331     -0.446851914     -4.251546280
H      -1.310523808      1.369637006      4.746630332
O       0.546467701     -0.152984944     -0.039584581
           3
  t=        12.25000    9    5
H      -1.791023387     -0.456755710     -4.352475403
H      -1.343994794      1.402391460      4.857525905
O       0.551355905     -0.154424714     -0.040212551
           3
  t=        12.50000    9    5
H      -1.835304136     -0.466700449     -4.453809298
H      -1.377559894      1.435246272      4.968772009
O       0.556260920     -0.155868229     -0.040837103
           3
  t=        12.75000    9    5
H      -1.879749769     -0.476684435     -4.555530387
H      -1.411214852      1.468197051      5.080353475
O       0.561181987     -0.157315317     -0.041458389
           3
  t=        13.00000    9    5
H      -1.924352960     -0.486706066     -4.657622145
H      -1.444955681      1.501239676      5.192256053
O       0.566118391     -0.158765820     -0.042076553
           3
  t=        13.25000    9    5
H      -1.969106830     -0.496763834     -4.760069020
H      -1.478778637      1.534370271      5.304466339
O       0.571069465     -0.160219589     -0.042691729
           3
  t=        13.50000    9    5
H      -2.014004918     -0.506856312     -4.862856363
H      -1.512680209      1.567585191      5.416971715
O       0.576034579     -0.161676485     -0.043304046
           3
  t=        13.75000    9    5
H      -2.059041145     -0.516982152     -4.965970368
H      -1.546657092      1.600881004      5.529760291
O       0.581013143     -0.163136375     -0.043913625
           3
  t=        14.00000    9    5
H      -2.104209787     -0.527140078     -5.069398004
H      -1.580706180      1.634254472      5.642820851
O       0.586004599     -0.164599137     -0.044520580
           3
  t=        14.25000    9    5
H      -2.149505450     -0.537328885     -5.173126968
H      -1.614824544      1.667702542      5.756142805
O       0.591008424     -0.166064653     -0.045125018
           3
  t=        14.50000    9    5
H      -2.194923047     -0.547547427     -5.277145629
H      -1.649009424      1.701222330      5.869716146
O       0.596024123     -0.167532815     -0.045727043
           3
  t=        14.75000    9    5
H      -2.240457775     -0.557794621     -5.381442986
H      -1.683258214      1.734811108      5.983531409
O       0.601051229     -0.169003518     -0.046326750
           3
  t=        15.00000    9    5
H      -2.286105095     -0.568069439     -5.486008623
H      -1.717568453      1.768466298      6.097579634
O       0.606089301     -0.170476666     -0.046924232
           3
  t=        15.25000    9    5
H      -2.331860717     -0.578370902     -5.590832672
H      -1.751937814      1.802185455      6.211852330
O       0.611137923     -0.171952165     -0.047519576
           3
  t=        15.50000    9    5
H      -2.377720577     -0.588698082     -5.695905774
H      -1.786364095      1.835966265      6.326341446
O       0.616196699     -0.173429928     -0.048112863
           3
  t=        15.75000    9    5
H      -2.423680827     -0.599050097     -5.801219049
H      -1.820845210      1.869806531      6.441039343
O       0.621265255     -0.174909873     -0.048704173
           3
  t=        16.00000    9    5
H      -2.469737820     -0.609426107     -5.906764063
H      -1.855379180      1.903704167      6.555938764
O       0.626343238     -0.176391921     -0.049293578
           3
  t=        16.25000    9    5
H      -2.515888095     -0.619825311     -6.012532801
H      -1.889964132      1.937657193      6.671032812
O       0.631430310     -0.177875997     -0.049881150
           3
  t=        16.50000    9    5
H      -2.562128364     -0.630246947     -6.118517640
H      -1.924598282      1.971663725      6.786314927
O       0.636526153     -0.179362031     -0.050466956
           3
  t=        16.75000    9    5
H      -2.608455506     -0.640690288     -6.224711323
H      -1.959279939      2.005721972      6.901778864
O       0.641630463     -0.180849956     -0.051051059
           3
  t=        17.00000    9    5
H      -2.654866551     -0.651154642     -6.331106942
H      -1.994007492      2.039830227      7.017418675
O       0.646742952     -0.182339708     -0.051633520
           3
  t=        17.25000    9    5
H      -2.701358674     -0.661639346     -6.437697912
H      -2.028779412      2.073986863      7.133228689
O       0.651863345     -0.183831227     -0.052214396
           3
  t=        17.50000    9    5
H      -2.747929185     -0.672143768     -6.544477951
H      -2.063594237      2.108190332      7.249203497
O       0.656991380     -0.185324454     -0.052793743
           3
  t=        17.75000    9    5
H      -2.794575519     -0.682667304     -6.651441069
H      -2.098450580      2.142439153      7.365337939
O       0.662126809     -0.186819334     -0.053371613
           3
  t=        18.00000    9    5
H      -2.841295233     -0.693209375     -6.758581542
H      -2.133347113      2.176731916      7.481627083
O       0.667269393     -0.188315815     -0.053948055
           3
  t=        18.25000    9    5
H      -2.888085994     -0.703769428     -6.865893903
H      -2.168282572      2.211067270      7.598066218
O       0.672418908     -0.189813846     -0.054523118
           3
  t=        18.50000    9    5
H      -2.934945576     -0.714346934     -6.973372926
H      -2.203255750      2.245443926      7.714650837
O       0.677575135     -0.191313380     -0.055096846
           3
  t=        18.75000    9    5
H      -2.981871851     -0.724941387     -7.081013611
H      -2.238265492      2.279860652      7.831376631
O       0.682737868     -0.192814371     -0.055669283
           3
  t=        19.00000    1    1
H      -3.028862786     -0.735552298     -7.188811172
H      -2.273310694      2.314316266      7.948239470
O       0.687906909     -0.194316776     -0.056240471
           3
  t=        19.25000    1    1
H      -3.076242768     -0.746252804     -7.297507326
H      -2.308640238      2.349052219      8.066057555
O       0.693118381     -0.195831199     -0.056815228
           3
  t=        19.50000    1    1
H      -3.123683905     -0.756969053     -7.406351450
H      -2.344003231      2.383825125      8.184005242
O       0.698335813     -0.197346958     -0.057388828
           3
  t=        19.75000    1    1
H      -3.171184387     -0.767700602     -7.515339304
H      -2.379398698      2.418633922      8.302078855
O       0.703559031     -0.198864015     -0.057961306
           3
  t=        20.00000    9    5
H      -3.218742480     -0.778447027     -7.624466822
H      -2.414825701      2.453477592      8.420274868
O       0.708787866     -0.200382331     -0.058532697
           3
  t=        20.25000    9    5
H      -3.265971610     -0.789119969     -7.732843417
H      -2.450002238      2.488076697      8.537643539
O       0.713980191     -0.201889869     -0.059099272
           3
  t=        20.50000    9    5
H      -3.313254858     -0.799806828     -7.841351976
H      -2.485208511      2.522708545      8.655127745
O       0.719177800     -0.203398592     -0.059664812
           3
  t=        20.75000    9    5
H      -3.360590722     -0.810507239     -7.949988934
H      -2.520443703      2.557372256      8.772724404
O       0.724380547     -0.204908469     -0.060229348
           3
  t=        21.00000    9    5
H      -3.407977759     -0.821220850     -8.058750864
H      -2.555707029      2.592066984      8.890430551
O       0.729588290     -0.206419469     -0.060792908
           3
  t=        21.25000    9    5
H      -3.455414582     -0.831947323     -8.167634469
H      -2.590997735      2.626791917      9.008243337
O       0.734800896     -0.207931562     -0.061355520
           3
  t=        21.50000    9    5
H      -3.502899860     -0.842686331     -8.276636581
H      -2.626315097      2.661546272      9.126160017
O       0.740018234     -0.209444718     -0.061917212
           3
  t=        21.75000    9    5
H      -3.550432313     -0.853437560     -8.385754147
H      -2.661658419      2.696329295      9.244177951
O       0.745240180     -0.210958911     -0.062478009
           3
  t=        22.00000    9    5
H      -3.598010707     -0.864200708     -8.494984228
H      -2.697027028      2.731140263      9.362294595
O       0.750466615     -0.212474114     -0.063037936
           3
  t=        22.25000    9    5
H      -3.645633859     -0.874975482     -8.604323996
H      -2.732420281      2.765978476      9.480507496
O       0.755697422     -0.213990301     -0.063597017
           3
  t=        22.50000    9    5
H      -3.693300626     -0.885761602     -8.713770722
H      -2.767837555      2.800843262      9.598814293
O       0.760932491     -0.215507447     -0.064155274
           3
  t=        22.75000    9    5
H      -3.741009908     -0.896558794     -8.823321776
H      -2.803278252      2.835733970      9.717212706
O       0.766171715     -0.217025529     -0.064712731
           3
  t=        23.00000    9    5
H      -3.788760647     -0.907366798     -8.932974624
H      -2.838741794      2.870649976      9.835700535
O       0.771414991     -0.218544523     -0.065269408
           3
  t=        23.25000    9    5
H      -3.836551820     -0.918185358     -9.042726816
H      -2.874227625      2.905590674      9.954275660
O       0.776662218     -0.220064409     -0.065825326
           3
  t=        23.50000    9    5
H      -3.884382443     -0.929014231     -9.152575992
H      -2.909735208      2.940555483     10.072936031
O       0.781913302     -0.221585164     -0.066380504
           3
  t=        23.75000    9    5
H      -3.932251565     -0.939853180     -9.262519871
H      -2.945264024      2.975543837     10.191679669
O       0.787168150     -0.223106767     -0.066934962
           3
  t=        24.00000    9    5
H      -3.980158269     -0.950701976     -9.372556249
H      -2.980813574      3.010555195     10.310504662
O       0.792426671     -0.224629199     -0.067488717
           3
  t=        24.25000    9    5
H      -4.028101670     -0.961560399     -9.482682997
H      -3.016383374      3.045589028     10.429409161
O       0.797688782     -0.226152442     -0.068041788
           3
  t=        24.50000    9    5
H      -4.076080912     -0.972428233     -9.592898059
H      -3.051972957      3.080644831     10.548391379
O       0.802954396     -0.227676475     -0.068594192
           3
  t=        24.75000    9    5
H      -4.124095167     -0.983305272     -9.703199443
H      -3.087581873      3.115722109     10.667449587
O       0.808223436     -0.229201281     -0.069145944
           3
  t=        25.00000    9    5
H      -4.172143639     -0.994191315     -9.813585225
H      -3.123209685      3.150820389     10.786582111
O       0.813495821     -0.230726844     -0.069697061
           3
  t=        25.25000    9    5
H      -4.220225552     -1.005086169     -9.924053542
H      -3.158855971      3.185939210     10.905787333
O       0.818771478     -0.232253145     -0.070247558
           3
  t=        25.50000    9    5
H      -4.268340162     -1.015989645    -10.034602591
H      -3.194520322      3.221078126     11.025063684
O       0.824050334     -0.233780170     -0.070797451
           3
  t=        25.75000    9    5
H      -4.316486743     -1.026901560    -10.145230627
H      -3.230202345      3.256236706     11.144409647
O       0.829332317     -0.235307902     -0.071346752
           3
  t=        26.00000    9    5
H      -4.364664597     -1.037821739    -10.255935958
H      -3.265901656      3.291414532     11.263823749
O       0.834617360     -0.236836325     -0.071895477
           3
  t=        26.25000    9    5
H      -4.412873046     -1.048750009    -10.366716945
H      -3.301617886      3.326611199     11.383304564
O       0.839905397     -0.238365426     -0.072443638
           3
  t=        26.50000    9    5
H      -4.461111434     -1.059686206    -10.477572002
H      -3.337350674      3.361826313     11.502850711
O       0.845196364     -0.239895190     -0.072991248
           3
  t=        26.75000    9    5
H      -4.509379124     -1.070630167    -10.588499588
H      -3.373099674      3.397059496     11.622460848
O       0.850490198     -0.241425603     -0.073538321
           3
  t=        27.00000    9    5
H      -4.557675501     -1.081581736    -10.699498211
H      -3.408864548      3.432310376     11.742133674
O       0.855786841     -0.242956652     -0.074084867
           3
  t=        27.25000    9    5
H      -4.605999967     -1.092540761    -10.810566422
H      -3.444644969      3.467578597     11.861867928
O       0.861086232     -0.244488324     -0.074630899
           3
  t=        27.50000    9    5
H      -4.654351942     -1.103507096    -10.921702817
H      -3.480440621      3.502863810     11.981662385
O       0.866388317     -0.246020606     -0.075176429
           3
  t=        27.75000    9    5
H      -4.702730865     -1.114480596    -11.032906030
H      -3.516251195      3.538165678     12.101515855
O       0.871693040     -0.247553485     -0.075721467
           3
  t=        28.00000    9    5
H      -4.751136191     -1.125461124    -11.144174739
H      -3.552076394      3.573483874     12.221427184
O       0.877000348     -0.249086951     -0.076266023
           3
  t=        28.25000    9    5
H      -4.799567390     -1.136448542    -11.255507657
H      -3.587915927      3.608818079     12.341395250
O       0.882310189     -0.250620991     -0.076810109
           3
  t=        28.50000    9    5
H      -4.848023949     -1.147442721    -11.366903535
H      -3.623769512      3.644167984     12.461418963
O       0.887622514     -0.252155595     -0.077353734
           3
  t=        28.75000    9    5
H      -4.896505368     -1.158443533    -11.478361159
H      -3.659636877      3.679533288     12.581497262
O       0.892937274     -0.253690751     -0.077896907
           3
  t=        29.00000    9    5
H      -4.945011163     -1.169450853    -11.589879350
H      -3.695517755      3.714913700     12.701629120
O       0.898254420     -0.255226449     -0.078439639
           3
  t=        29.25000    9    5
H      -4.993540864     -1.180464561    -11.701456960
H      -3.731411889      3.750308935     12.821813533
O       0.903573909     -0.256762678     -0.078981939
           3
  t=        29.50000    9    5
H      -5.042094012     -1.191484539    -11.813092876
H      -3.767319028      3.785718718     12.942049527
O       0.908895694     -0.258299429     -0.079523815
           3
  t=        29.75000    9    5
H      -5.090670164     -1.202510672    -11.924786012
H      -3.803238927      3.821142780     13.062336156
O       0.914219732     -0.259836691     -0.080065276
           3
  t=        30.00000    9    5
H      -5.139268885     -1.213542850    -12.036535313
H      -3.839171350      3.856580859     13.182672497
O       0.919545982     -0.261374457     -0.080606330
           3
  t=        30.25000    9    5
H      -5.187889757     -1.224580964    -12.148339753
H      -3.875116066      3.892032702     13.303057651
O       0.924874402     -0.262912715     -0.081146986
           3
  t=        30.50000    9    5
H      -5.236532369     -1.235624909    -12.260198333
H      -3.911072849      3.927498060     13.423490747
O       0.930204952     -0.264451457     -0.081687252
           3
  t=        30.75000    9    5
H      -5.285196323     -1.246674581    -12.372110079
H      -3.947041481      3.962976693     13.543970931
O       0.935537594     -0.265990675     -0.082227134
           3
  t=        31.00000    9    5
H      -5.333881232     -1.257729881    -12.484074044
H      -3.983021750      3.998468365     13.664497377
O       0.940872289     -0.267530360     -0.082766641
           3
  t=        31.25000    9    5
H      -5.382586719     -1.268790710    -12.596089306
H      -4.019013449      4.033972849     13.785069275
O       0.946209001     -0.269070504     -0.083305779
           3
  t=        31.50000    9    5
H      -5.431312416     -1.279856975    -12.708154967
H      -4.055016374      4.069489921     13.905685840
O       0.951547694     -0.270611099     -0.083844557
           3
  t=        31.75000    9    5
H      -5.480057966     -1.290928582    -12.820270150
H      -4.091030331      4.105019364     14.026346304
O       0.956888332     -0.272152136     -0.084382980
           3
  t=        32.00000    9    5
H      -5.528823020     -1.302005441    -12.932434001
H      -4.127055127      4.140560967     14.147049921
O       0.962230883     -0.273693609     -0.084921056
           3
  t=        32.25000    9    5
H      -5.577607239     -1.313087463    -13.044645690
H      -4.163090576      4.176114523     14.267795961
O       0.967575312     -0.275235509     -0.085458790
           3
  t=        32.50000    9    5
H      -5.626410291     -1.324174563    -13.156904405
H      -4.199136495      4.211679832     14.388583713
O       0.972921588     -0.276777830     -0.085996190
           3
  t=        32.75000    9    5
H      -5.675231854     -1.335266656    -13.269209354
H      -4.235192708      4.247256696     14.509412485
O       0.978269679     -0.278320565     -0.086533261
           3
  t=        33.00000    9    5
H      -5.724071614     -1.346363662    -13.381559767
H      -4.271259041      4.282844925     14.630281599
O       0.983619554     -0.279863706     -0.087070010
           3
  t=        33.25000    9    5
H      -5.772929264     -1.357465499    -13.493954891
H      -4.307335326      4.318444331     14.751190396
O       0.988971183     -0.281407247     -0.087606441
           3
  t=        33.50000    9    5
H      -5.821804504     -1.368572091    -13.606393991
H      -4.343421397      4.354054733     14.872138232
O       0.994324537     -0.282951181     -0.088142562
           3
  t=        33.75000    9    5
H      -5.870697044     -1.379683360    -13.718876351
H      -4.379517095      4.389675953     14.993124478
O       0.999679588     -0.284495502     -0.088678377
           3
  t=        34.00000    9    5
H      -5.919606599     -1.390799232    -13.831401271
H      -4.415622263      4.425307816     15.114148520
O       1.005036308     -0.286040204     -0.089213892
           3
  t=        34.25000    9    5
H      -5.968532890     -1.401919636    -13.943968067
H      -4.451736747      4.460950154     15.235209758
O       1.010394669     -0.287585280     -0.089749112
           3
  t=        34.50000    9    5
H      -6.017475646     -1.413044499    -14.056576074
H      -4.487860399      4.496602801     15.356307607
O       1.015754645     -0.289130725     -0.090284042
           3
  t=        34.75000    9    5
H      -6.066434603     -1.424173753    -14.169224639
H      -4.523993072      4.532265595     15.477441495
O       1.021116211     -0.290676532     -0.090818687
           3
  t=        35.00000    9    5
H      -6.115409503     -1.435307329    -14.281913127
H      -4.560134624      4.567938378     15.598610863
O       1.026479340     -0.292222697     -0.091353052
           3
  t=        35.25000    9    5
H      -6.164400092     -1.446445163    -14.394640916
H      -4.596284915      4.603620996     15.719815165
O       1.031844009     -0.293769213     -0.091887143
           3
  t=        35.50000    9    5
H      -6.213406124     -1.457587188    -14.507407397
H      -4.632443811      4.639313297     15.841053868
O       1.037210193     -0.295316075     -0.092420962
           3
  t=        35.75000    9    5
H      -6.262427359     -1.468733341    -14.620211979
H      -4.668611177      4.675015134     15.962326448
O       1.042577868     -0.296863277     -0.092954516
           3
  t=        36.00000    9    5
H      -6.311463560     -1.479883562    -14.733054079
H      -4.704786885      4.710726364     16.083632397
O       1.047947012     -0.298410816     -0.093487808
           3
  t=        36.25000    9    5
H      -6.360514498     -1.491037788    -14.845933132
H      -4.740970808      4.746446845     16.204971215
O       1.053317603     -0.299958684     -0.094020843
           3
  t=        36.50000    9    5
H      -6.409579948     -1.502195962    -14.958848581
H      -4.777162820      4.782176439     16.326342415
O       1.058689617     -0.301506879     -0.094553625
           3
  t=        36.75000    9    5
H      -6.458659690     -1.513358025    -15.071799886
H      -4.813362801      4.817915011     16.447745519
O       1.064063034     -0.303055394     -0.095086158
           3
  t=        37.00000    9    5
H      -6.507753509     -1.524523920    -15.184786515
H      -4.849570633      4.853662430     16.569180061
O       1.069437833     -0.304604224     -0.095618446
           3
  t=        37.25000    9    5
H      -6.556861195     -1.535693592    -15.297807948
H      -4.885786199      4.889418566     16.690645584
O       1.074813993     -0.306153367     -0.096150494
           3
  t=        37.50000    9    5
H      -6.605982542     -1.546866987    -15.410863679
H      -4.922009386      4.925183294     16.812141640
O       1.080191493     -0.307702815     -0.096682304
           3
  t=        37.75000    9    5
H      -6.655117350     -1.558044052    -15.523953210
H      -4.958240083      4.960956488     16.933667792
O       1.085570315     -0.309252567     -0.097213880
           3
  t=        38.00000    9    5
H      -6.704265420     -1.569224734    -15.637076055
H      -4.994478181      4.996738030     17.055223612
O       1.090950440     -0.310802616     -0.097745227
           3
  t=        38.25000    9    5
H      -6.753426562     -1.580408984    -15.750231737
H      -5.030723573      5.032527800     17.176808681
O       1.096331847     -0.312352959     -0.098276348
           3
  t=        38.50000    9    5
H      -6.802600586     -1.591596750    -15.863419791
H      -5.066976156      5.068325681     17.298422588
O       1.101714519     -0.313903591     -0.098807246
           3
  t=        38.75000    9    5
H      -6.851787308     -1.602787984    -15.976639759
H      -5.103235828      5.104131562     17.420064930
O       1.107098438     -0.315454509     -0.099337925
           3
  t=        39.00000    9    5
H      -6.900986547     -1.613982638    -16.089891196
H      -5.139502488      5.139945329     17.541735315
O       1.112483586     -0.317005708     -0.099868388
           3
  t=        39.25000    9    5
H      -6.950198127     -1.625180665    -16.203173664
H      -5.175776040      5.175766876     17.663433355
O       1.117869945     -0.318557185     -0.100398639
           3
  t=        39.50000    9    5
H      -6.999421875     -1.636382020    -16.316486733
H      -5.212056387      5.211596094     17.785158674
O       1.123257500     -0.320108936     -0.100928680
           3
  t=        39.75000    9    5
H      -7.048657620     -1.647586657    -16.429829983
H      -5.248343436      5.247432879     17.906910901
O       1.128646232     -0.321660956     -0.101458515
           3
  t=        40.00000    9    5
H      -7.097905197     -1.658794533    -16.543203004
H      -5.284637094      5.283277129     18.028689672
O       1.134036127     -0.323213243     -0.101988146
           3
  t=        40.25000    9    5
H      -7.147164442     -1.670005603    -16.656605391
H      -5.320937273      5.319128743     18.150494633
O       1.139427168     -0.324765793     -0.102517578
           3
  t=        40.50000    9    5
H      -7.196435198     -1.681219826    -16.770036749
H      -5.357243883      5.354987624     18.272325434
O       1.144819339     -0.326318602     -0.103046812
           3
  t=        40.75000    9    5
H      -7.245717307     -1.692437160    -16.883496692
H      -5.393556838      5.390853674     18.394181733
O       1.150212626     -0.327871666     -0.103575851
           3
  t=        41.00000    9    5
H      -7.295010616     -1.703657565    -16.996984839
H      -5.429876053      5.426726798     18.516063196
O       1.155607012     -0.329424983     -0.104104699
           3
  t=        41.25000    9    5
H      -7.344314976     -1.714881000    -17.110500817
H      -5.466201446      5.462606905     18.637969493
O       1.161002484     -0.330978549     -0.104633359
           3
  t=        41.50000    9    5
H      -7.393630239     -1.726107426    -17.224044262
H      -5.502532935      5.498493903     18.759900303
O       1.166399027     -0.332532361     -0.105161832
           3
  t=        41.75000    9    5
H      -7.442956261     -1.737336804    -17.337614816
H      -5.538870440      5.534387702     18.881855309
O       1.171796628     -0.334086415     -0.105690121
           3
  t=        42.00000    9    5
H      -7.492292900     -1.748569098    -17.451212127
H      -5.575213882      5.570288217     19.003834200
O       1.177195271     -0.335640708     -0.106218230
           3
  t=        42.25000    9    5
H      -7.541640018     -1.759804270    -17.564835850
H      -5.611563186      5.606195359     19.125836674
O       1.182594944     -0.337195238     -0.106746160
           3
  t=        42.50000    9    5
H      -7.590997479     -1.771042283    -17.678485649
H      -5.647918275      5.642109047     19.247862430
O       1.187995633     -0.338750001     -0.107273914
           3
  t=        42.75000    9    5
H      -7.640365150     -1.782283102    -17.792161190
H      -5.684279076      5.678029195     19.369911176
O       1.193397325     -0.340304995     -0.107801495
           3
  t=        43.00000    9    5
H      -7.689742899     -1.793526692    -17.905862150
H      -5.720645516      5.713955725     19.491982624
O       1.198800008     -0.341860216     -0.108328905
           3
  t=        43.25000    9    5
H      -7.739130598     -1.804773019    -18.019588208
H      -5.757017524      5.749888555     19.614076493
O       1.204203668     -0.343415661     -0.108856146
           3
  t=        43.50000    9    5
H      -7.788528122     -1.816022049    -18.133339051
H      -5.793395031      5.785827609     19.736192505
O       1.209608294     -0.344971329     -0.109383220
           3
  t=        43.75000    9    5
H      -7.837935346     -1.827273749    -18.247114371
H      -5.829777967      5.821772808     19.858330388
O       1.215013873     -0.346527215     -0.109910131
           3
  t=        44.00000    9    5
H      -7.887352149     -1.838528086    -18.360913867
H      -5.866166265      5.857724078     19.980489874
O       1.220420394     -0.348083318     -0.110436879
           3
  t=        44.25000    9    5
H      -7.936778412     -1.849785028    -18.474737241
H      -5.902559860      5.893681345     20.102670703
O       1.225827844     -0.349639634     -0.110963467
           3
  t=        44.50000    9    5
H      -7.986214019     -1.861044544    -18.588584204
H      -5.938958686      5.929644537     20.224872615
O       1.231236213     -0.351196162     -0.111489898
           3
  t=        44.75000    9    5
H      -8.035658853     -1.872306604    -18.702454468
H      -5.975362679      5.965613581     20.347095359
O       1.236645489     -0.352752898     -0.112016173
           3
  t=        45.00000    9    5
H      -8.085112804     -1.883571177    -18.816347753
H      -6.011771778      6.001588408     20.469338685
O       1.242055661     -0.354309840     -0.112542294
           3
  t=        45.25000    9    5
H      -8.134575759     -1.894838233    -18.930263783
H      -6.048185921      6.037568950     20.591602350
O       1.247466718     -0.355866985     -0.113068264
           3
  t=        45.50000    9    5
H      -8.184047610     -1.906107743    -19.044202287
H      -6.084605048      6.073555137     20.713886114
O       1.252878650     -0.357424332     -0.113594084
           3
  t=        45.75000    9    5
H      -8.233528251     -1.917379678    -19.158162999
H      -6.121029098      6.109546905     20.836189740
O       1.258291445     -0.358981878     -0.114119756
           3
  t=        46.00000    9    5
H      -8.283017577     -1.928654011    -19.272145658
H      -6.157458015      6.145544188     20.958512999
O       1.263705095     -0.360539620     -0.114645283
           3
  t=        46.25000    9    5
H      -8.332515484     -1.939930712    -19.386150006
H      -6.193891740      6.181546921     21.080855661
O       1.269119588     -0.362097556     -0.115170665
           3
  t=        46.50000    9    5
H      -8.382021871     -1.951209757    -19.500175791
H      -6.230330218      6.217555042     21.203217503
O       1.274534915     -0.363655684     -0.115695905
           3
  t=        46.75000    9    5
H      -8.431536638     -1.962491116    -19.614222765
H      -6.266773393      6.253568488     21.325598305
O       1.279951066     -0.365214002     -0.116221005
           3
  t=        47.00000    9    5
H      -8.481059689     -1.973774765    -19.728290683
H      -6.303221211      6.289587199     21.447997852
O       1.285368032     -0.366772507     -0.116745966
           3
  t=        47.25000    9    5
H      -8.530590927     -1.985060677    -19.842379307
H      -6.339673619      6.325611115     21.570415930
O       1.290785802     -0.368331197     -0.117270791
           3
  t=        47.50000    9    5
H      -8.580130258     -1.996348827    -19.956488399
H      -6.376130564      6.361640178     21.692852332
O       1.296204369     -0.369890071     -0.117795480
           3
  t=        47.75000    9    5
H      -8.629677588     -2.007639189    -20.070617729
H      -6.412591994      6.397674328     21.815306850
O       1.301623722     -0.371449126     -0.118320035
           3
  t=        48.00000    9    5
H      -8.679232826     -2.018931740    -20.184767068
H      -6.449057860      6.433713509     21.937779284
O       1.307043853     -0.373008360     -0.118844459
           3
  t=        48.25000    9    5
H      -8.728795883     -2.030226454    -20.298936193
H      -6.485528111      6.469757665     22.060269434
O       1.312464752     -0.374567771     -0.119368752
           3
  t=        48.50000    9    5
H      -8.778366671     -2.041523309    -20.413124882
H      -6.522002697      6.505806742     22.182777105
O       1.317886412     -0.376127358     -0.119892916
           3
  t=        48.75000    9    5
H      -8.827945102     -2.052822280    -20.527332920
H      -6.558481572      6.541860685     22.305302105
O       1.323308824     -0.377687117     -0.120416953
           3
  t=        49.00000    9    5
H      -8.877531092     -2.064123344    -20.641560092
H      -6.594964687      6.577919440     22.427844244
O       1.328731979     -0.379247048     -0.120940864
           3
  t=        49.25000    9    5
H      -8.927124556     -2.075426480    -20.755806189
H      -6.631451995      6.613982955     22.550403337
O       1.334155870     -0.380807149     -0.121464652
           3
  t=        49.50000    9    5
H      -8.976725413     -2.086731664    -20.870071005
H      -6.667943451      6.650051180     22.672979201
O       1.339580487     -0.382367417     -0.121988316
           3
  t=        49.75000    9    5
H      -9.026333580     -2.098038875    -20.984354336
H      -6.704439010      6.686124062     22.795571654
O       1.345005824     -0.383927851     -0.122511859
           3
  t=        50.00000    9    5
H      -9.075948978     -2.109348091    -21.098655983
H      -6.740938628      6.722201552     22.918180521
O       1.350431872     -0.385488448     -0.123035282
           3
  t=        50.25000    9    5
H      -9.125571528     -2.120659290    -21.212975749
H      -6.777442259      6.758283601     23.040805626
O       1.355858624     -0.387049209     -0.123558587
           3
  t=        50.50000    9    5
H      -9.175201154     -2.131972453    -21.327313441
H      -6.813949863      6.794370161     23.163446798
O       1.361286072     -0.388610129     -0.124081775
           3
  t=        50.75000    9    5
H      -9.224837779     -2.143287557    -21.441668869
H      -6.850461395      6.830461183     23.286103867
O       1.366714208     -0.390171209     -0.124604846
           3
  t=        51.00000    9    5
H      -9.274481327     -2.154604584    -21.556041843
H      -6.886976815      6.866556622     23.408776667
O       1.372143025     -0.391732445     -0.125127804
           3
  t=        51.25000    9    5
H      -9.324131726     -2.165923512    -21.670432181
H      -6.923496082      6.902656430     23.531465035
O       1.377572517     -0.393293837     -0.125650648
           3
  t=        51.50000    9    5
H      -9.373788903     -2.177244323    -21.784839701
H      -6.960019154      6.938760563     23.654168808
O       1.383002675     -0.394855383     -0.126173380
           3
  t=        51.75000    9    5
H      -9.423452787     -2.188566997    -21.899264224
H      -6.996545993      6.974868976     23.776887828
O       1.388433494     -0.396417082     -0.126696002
           3
  t=        52.00000    9    5
H      -9.473123307     -2.199891514    -22.013705573
H      -7.033076559      7.010981624     23.899621940
O       1.393864965     -0.397978931     -0.127218514
           3
  t=        52.25000    9    5
H      -9.522800393     -2.211217856    -22.128163575
H      -7.069610814      7.047098465     24.022370987
O       1.399297082     -0.399540929     -0.127740918
           3
  t=        52.50000    9    5
H      -9.572483979     -2.222546005    -22.242638060
H      -7.106148720      7.083219456     24.145134820
O       1.404729839     -0.401103074     -0.128263215
           3
  t=        52.75000    9    5
H      -9.622173996     -2.233875942    -22.357128859
H      -7.142690239      7.119344554     24.267913287
O       1.410163229     -0.402665366     -0.128785406
           3
  t=        53.00000    9    5
H      -9.671870380     -2.245207650    -22.471635806
H      -7.179235335      7.155473718     24.390706243
O       1.415597246     -0.404227803     -0.129307493
           3
  t=        53.25000    9    5
H      -9.721573063     -2.256541110    -22.586158740
H      -7.215783971      7.191606907     24.513513543
O       1.421031882     -0.405790383     -0.129829476
           3
  t=        53.50000    9    5
H      -9.771281984     -2.267876305    -22.700697498
H      -7.252336111      7.227744082     24.636335042
O       1.426467133     -0.407353104     -0.130351357
           3
  t=        53.75000    9    5
H      -9.820997078     -2.279213218    -22.815251923
H      -7.288891721      7.263885202     24.759170601
O       1.431902990     -0.408915966     -0.130873137
           3
  t=        54.00000    9    5
H      -9.870718283     -2.290551833    -22.929821858
H      -7.325450766      7.300030228     24.882020081
O       1.437339450     -0.410478967     -0.131394816
           3
  t=        54.25000    9    5
H      -9.920445538     -2.301892132    -23.044407150
H      -7.362013212      7.336179123     25.004883344
O       1.442776505     -0.412042105     -0.131916396
           3
  t=        54.50000    9    5
H      -9.970178784     -2.313234099    -23.159007648
H      -7.398579025      7.372331847     25.127760258
O       1.448214149     -0.413605380     -0.132437879
           3
  t=        54.75000    9    5
H     -10.019917959     -2.324577718    -23.273623202
H      -7.435148171      7.408488365     25.250650688
O       1.453652377     -0.415168790     -0.132959264
           3
  t=        55.00000    9    5
H     -10.069663006     -2.335922972    -23.388253665
H      -7.471720620      7.444648638     25.373554504
O       1.459091183     -0.416732333     -0.133480553
           3
  t=        55.25000    9    5
H     -10.119413867     -2.347269847    -23.502898893
H      -7.508296337      7.480812631     25.496471577
O       1.464530562     -0.418296008     -0.134001747
           3
  t=        55.50000    9    5
H     -10.169170486     -2.358618327    -23.617558742
H      -7.544875291      7.516980308     25.619401779
O       1.469970507     -0.419859815     -0.134522848
           3
  t=        55.75000    9    5
H     -10.218932805     -2.369968395    -23.732233071
H      -7.581457452      7.553151633     25.742344987
O       1.475411013     -0.421423751     -0.135043855
           3
  t=        56.00000    9    5
H     -10.268700770     -2.381320038    -23.846921743
H      -7.618042788      7.589326573     25.865301075
O       1.480852076     -0.422987816     -0.135564770
           3
  t=        56.25000    9    5
H     -10.318474327     -2.392673241    -23.961624620
H      -7.654631269      7.625505092     25.988269923
O       1.486293688     -0.424552008     -0.136085595
           3
  t=        56.50000    9    5
H     -10.368253421     -2.404027988    -24.076341567
H      -7.691222865      7.661687157     26.111251410
O       1.491735846     -0.426116326     -0.136606329
           3
  t=        56.75000    9    5
H     -10.418038000     -2.415384266    -24.191072451
H      -7.727817546      7.697872734     26.234245417
O       1.497178544     -0.427680769     -0.137126973
           3
  t=        57.00000    9    5
H     -10.467828012     -2.426742059    -24.305817141
H      -7.764415284      7.734061791     26.357251829
O       1.502621777     -0.429245335     -0.137647530
           3
  t=        57.25000    9    5
H     -10.517623405     -2.438101355    -24.420575508
H      -7.801016049      7.770254296     26.480270530
O       1.508065540     -0.430810025     -0.138167999
           3
  t=        57.50000    9    5
H     -10.567424128     -2.449462139    -24.535347425
H      -7.837619814      7.806450216     26.603301405
O       1.513509827     -0.432374835     -0.138688381
           3
  t=        57.75000    9    5
H     -10.617230132     -2.460824397    -24.650132765
H      -7.874226550      7.842649519     26.726344345
O       1.518954635     -0.433939767     -0.139208678
           3
  t=        58.00000    9    5
H     -10.667041367     -2.472188116    -24.764931405
H      -7.910836230      7.878852176     26.849399237
O       1.524399957     -0.435504817     -0.139728889
           3
  t=        58.25000    9    5
H     -10.716857785     -2.483553283    -24.879743221
H      -7.947448827      7.915058155     26.972465972
O       1.529845790     -0.437069985     -0.140249017
           3
  t=        58.50000    9    5
H     -10.766679337     -2.494919885    -24.994568095
H      -7.984064314      7.951267426     27.095544445
O       1.535292128     -0.438635271     -0.140769062
           3
  t=        58.75000    9    5
H     -10.816505977     -2.506287908    -25.109405906
H      -8.020682665      7.987479958     27.218634547
O       1.540738968     -0.440200672     -0.141289024
           3
  t=        59.00000    9    5
H     -10.866337657     -2.517657340    -25.224256537
H      -8.057303853      8.023695724     27.341736175
O       1.546186304     -0.441766188     -0.141808905
           3
  t=        59.25000    9    5
H     -10.916174332     -2.529028168    -25.339119873
H      -8.093927853      8.059914693     27.464849226
O       1.551634132     -0.443331818     -0.142328705
           3
  t=        59.50000    9    5
H     -10.966015955     -2.540400380    -25.453995798
H      -8.130554639      8.096136837     27.587973597
O       1.557082447     -0.444897561     -0.142848424
           3
  t=        59.75000    9    5
H     -11.015862484     -2.551773964    -25.568884201
H      -8.167184187      8.132362128     27.711109188
O       1.562531245     -0.446463416     -0.143368065
           3
  t=        60.00000    9    5
H     -11.065713872     -2.563148907    -25.683784970
H      -8.203816471      8.168590538     27.834255900
O       1.567980522     -0.448029382     -0.143887627
           3
  t=        60.25000    9    5
H     -11.115570077     -2.574525197    -25.798697996
H      -8.240451468      8.204822039     27.957413635
O       1.573430273     -0.449595457     -0.144407112
           3
  t=        60.50000    9    5
H     -11.165431056     -2.585902823    -25.913623169
H      -8.277089154      8.241056604     28.080582296
O       1.578880494     -0.451161642     -0.144926519
           3
  t=        60.75000    9    5
H     -11.215296766     -2.597281774    -26.028560383
H      -8.313729504      8.277294206     28.203761788
O       1.584331182     -0.452727934     -0.145445851
           3
  t=        61.00000    9    5
H     -11.265167165     -2.608662036    -26.143509533
H      -8.350372495      8.313534820     28.326952017
O       1.589782331     -0.454294334     -0.145965106
           3
  t=        61.25000    9    5
H     -11.315042212     -2.620043600    -26.258470514
H      -8.387018105      8.349778418     28.450152890
O       1.595233938     -0.455860839     -0.146484287
           3
  t=        61.50000    9    5
H     -11.364921867     -2.631426454    -26.373443223
H      -8.423666310      8.386024975     28.573364316
O       1.600685999     -0.457427450     -0.147003394
           3
  t=        61.75000    9    5
H     -11.414806088     -2.642810587    -26.488427560
H      -8.460317087      8.422274466     28.696586202
O       1.606138510     -0.458994165     -0.147522428
           3
  t=        62.00000    9    5
H     -11.464694836     -2.654195988    -26.603423423
H      -8.496970415      8.458526865     28.819818461
O       1.611591467     -0.460560983     -0.148041388
           3
  t=        62.25000    9    5
H     -11.514588072     -2.665582647    -26.718430714
H      -8.533626272      8.494782147     28.943061005
O       1.617044866     -0.462127904     -0.148560277
           3
  t=        62.50000    9    5
H     -11.564485757     -2.676970551    -26.833449336
H      -8.570284636      8.531040289     29.066313745
O       1.622498703     -0.463694927     -0.149079094
           3
  t=        62.75000    9    5
H     -11.614387853     -2.688359692    -26.948479191
H      -8.606945486      8.567301266     29.189576595
O       1.627952975     -0.465262050     -0.149597840
           3
  t=        63.00000    9    5
H     -11.664294322     -2.699750059    -27.063520185
H      -8.643608800      8.603565053     29.312849472
O       1.633407677     -0.466829273     -0.150116517
           3
  t=        63.25000    9    5
H     -11.714205127     -2.711141641    -27.178572223
H      -8.680274558      8.639831629     29.436132291
O       1.638862807     -0.468396595     -0.150635123
           3
  t=        63.50000    9    5
H     -11.764120231     -2.722534429    -27.293635214
H      -8.716942739      8.676100968     29.559424968
O       1.644318360     -0.469964015     -0.151153661
           3
  t=        63.75000    9    5
H     -11.814039597     -2.733928412    -27.408709064
H      -8.753613322      8.712373048     29.682727423
O       1.649774334     -0.471531533     -0.151672131
           3
  t=        64.00000    9    5
H     -11.863963191     -2.745323580    -27.523793685
H      -8.790286289      8.748647847     29.806039574
O       1.655230723     -0.473099147     -0.152190533
           3
  t=        64.25000    9    5
H     -11.913890976     -2.756719924    -27.638888985
H      -8.826961618      8.784925342     29.929361342
O       1.660687526     -0.474666857     -0.152708868
           3
  t=        64.50000    9    5
H     -11.963822917     -2.768117435    -27.753994878
H      -8.863639290      8.821205510     30.052692647
O       1.666144738     -0.476234662     -0.153227137
           3
  t=        64.75000    9    5
H     -12.013758980     -2.779516102    -27.869111275
H      -8.900319286      8.857488331     30.176033412
O       1.671602357     -0.477802562     -0.153745340
           3
  t=        65.00000    9    5
H     -12.063699131     -2.790915916    -27.984238090
H      -8.937001588      8.893773782     30.299383560
O       1.677060378     -0.479370554     -0.154263477
           3
  t=        65.25000    9    5
H     -12.113643336     -2.802316868    -28.099375239
H      -8.973686175      8.930061842     30.422743015
O       1.682518799     -0.480938640     -0.154781550
           3
  t=        65.50000    9    5
H     -12.163591562     -2.813718948    -28.214522638
H      -9.010373029      8.966352489     30.546111701
O       1.687977616     -0.482506817     -0.155299559
           3
  t=        65.75000    9    5
H     -12.213543775     -2.825122149    -28.329680202
H      -9.047062133      9.002645704     30.669489545
O       1.693436825     -0.484075086     -0.155817504
           3
  t=        66.00000    9    5
H     -12.263499944     -2.836526460    -28.444847851
H      -9.083753467      9.038941465     30.792876473
O       1.698896425     -0.485643445     -0.156335386
           3
  t=        66.25000    9    5
H     -12.313460036     -2.847931873    -28.560025503
H      -9.120447014      9.075239752     30.916272413
O       1.704356411     -0.487211893     -0.156853206
           3
  t=        66.50000    9    5
H     -12.363424019     -2.859338379    -28.675213078
H      -9.157142756      9.111540545     31.039677292
O       1.709816781     -0.488780431     -0.157370963
           3
  t=        66.75000    9    5
H     -12.413391862     -2.870745970    -28.790410497
H      -9.193840675      9.147843824     31.163091041
O       1.715277531     -0.490349057     -0.157888660
           3
  t=        67.00000    9    5
H     -12.463363535     -2.882154636    -28.905617681
H      -9.230540754      9.184149570     31.286513589
O       1.720738659     -0.491917771     -0.158406295
           3
  t=        67.25000    9    5
H     -12.513339006     -2.893564370    -29.020834554
H      -9.267242977      9.220457762     31.409944868
O       1.726200161     -0.493486572     -0.158923870
           3
  t=        67.50000    9    5
H     -12.563318245     -2.904975163    -29.136061039
H      -9.303947325      9.256768382     31.533384808
O       1.731662034     -0.495055458     -0.159441386
           3
  t=        67.75000    9    5
H     -12.613301223     -2.916387007    -29.251297060
H      -9.340653783      9.293081411     31.656833343
O       1.737124276     -0.496624431     -0.159958841
           3
  t=        68.00000    9    5
H     -12.663287910     -2.927799894    -29.366542543
H      -9.377362333      9.329396830     31.780290406
O       1.742586883     -0.498193488     -0.160476238
           3
  t=        68.25000    9    5
H     -12.713278276     -2.939213815    -29.481797414
H      -9.414072960      9.365714620     31.903755930
O       1.748049853     -0.499762630     -0.160993577
           3
  t=        68.50000    9    5
H     -12.763272294     -2.950628764    -29.597061600
H      -9.450785647      9.402034764     32.027229851
O       1.753513183     -0.501331855     -0.161510858
           3
  t=        68.75000    9    5
H     -12.813269934     -2.962044731    -29.712335029
H      -9.487500379      9.438357243     32.150712104
O       1.758976870     -0.502901163     -0.162028081
           3
  t=        69.00000    9    5
H     -12.863271168     -2.973461709    -29.827617630
H      -9.524217139      9.474682039     32.274202625
O       1.764440911     -0.504470553     -0.162545248
           3
  t=        69.25000    9    5
H     -12.913275968     -2.984879690    -29.942909332
H      -9.560935912      9.511009135     32.397701352
O       1.769905304     -0.506040025     -0.163062358
           3
  t=        69.50000    9    5
H     -12.963284307     -2.996298667    -30.058210067
H      -9.597656682      9.547338512     32.521208222
O       1.775370045     -0.507609578     -0.163579412
           3
  t=        69.75000    9    5
H     -13.013296158     -3.007718632    -30.173519764
H      -9.634379434      9.583670155     32.644723173
O       1.780835133     -0.509179212     -0.164096410
           3
  t=        70.00000    9    5
H     -13.063311494     -3.019139579    -30.288838356
H      -9.671104154      9.620004045     32.768246146
O       1.786300564     -0.510748925     -0.164613353
           3
  t=        70.25000    9    5
H     -13.113330287     -3.030561498    -30.404165776
H      -9.707830826      9.656340166     32.891777078
O       1.791766337     -0.512318718     -0.165130242
           3
  t=        70.50000    9    5
H     -13.163352513     -3.041984384    -30.519501957
H      -9.744559435      9.692678500     33.015315912
O       1.797232447     -0.513888589     -0.165647077
           3
  t=        70.75000    9    5
H     -13.213378144     -3.053408229    -30.634846833
H      -9.781289968      9.729019033     33.138862587
O       1.802698893     -0.515458538     -0.166163857
           3
  t=        71.00000    9    5
H     -13.263407155     -3.064833025    -30.750200339
H      -9.818022409      9.765361746     33.262417047
O       1.808165673     -0.517028565     -0.166680585
           3
  t=        71.25000    9    5
H     -13.313439522     -3.076258767    -30.865562412
H      -9.854756744      9.801706625     33.385979232
O       1.813632783     -0.518598668     -0.167197259
           3
  t=        71.50000    9    5
H     -13.363475217     -3.087685446    -30.980932986
H      -9.891492959      9.838053652     33.509549087
O       1.819100221     -0.520168848     -0.167713881
           3
  t=        71.75000    9    5
H     -13.413514218     -3.099113056    -31.096312001
H      -9.928231040      9.874402812     33.633126555
O       1.824567986     -0.521739104     -0.168230451
           3
  t=        72.00000    9    5
H     -13.463556498     -3.110541591    -31.211699392
H      -9.964970974      9.910754090     33.756711581
O       1.830036073     -0.523309434     -0.168746970
           3
  t=        72.25000    9    5
H     -13.513602035     -3.121971043    -31.327095099
H     -10.001712747      9.947107470     33.880304108
O       1.835504482     -0.524879840     -0.169263437
           3
  t=        72.50000    9    5
H     -13.563650803     -3.133401406    -31.442499061
H     -10.038456345      9.983462937     34.003904083
O       1.840973209     -0.526450319     -0.169779853
           3
  t=        72.75000    9    5
H     -13.613702779     -3.144832672    -31.557911218
H     -10.075201755     10.019820476     34.127511452
O       1.846442253     -0.528020872     -0.170296219
           3
  t=        73.00000    9    5
H     -13.663757940     -3.156264837    -31.673331509
H     -10.111948964     10.056180071     34.251126162
O       1.851911611     -0.529591499     -0.170812534
           3
  t=        73.25000    9    5
H     -13.713816262     -3.167697893    -31.788759877
H     -10.148697959     10.092541707     34.374748159
O       1.857381280     -0.531162197     -0.171328800
           3
  t=        73.50000    9    5
H     -13.763877722     -3.179131833    -31.904196263
H     -10.185448726     10.128905371     34.498377391
O       1.862851259     -0.532732968     -0.171845017
           3
  t=        73.75000    9    5
H     -13.813942298     -3.190566653    -32.019640608
H     -10.222201254     10.165271048     34.622013808
O       1.868321545     -0.534303810     -0.172361185
           3
  t=        74.00000    9    5
H     -13.864009966     -3.202002344    -32.135092857
H     -10.258955529     10.201638723     34.745657357
O       1.873792136     -0.535874723     -0.172877304
           3
  t=        74.25000    9    5
H     -13.914080705     -3.213438902    -32.250552953
H     -10.295711538     10.238008382     34.869307989
O       1.879263030     -0.537445706     -0.173393375
           3
  t=        74.50000    9    5
H     -13.964154493     -3.224876319    -32.366020840
H     -10.332469271     10.274380011     34.992965652
O       1.884734224     -0.539016760     -0.173909398
           3
  t=        74.75000    9    5
H     -14.014231308     -3.236314591    -32.481496462
H     -10.369228714     10.310753597     35.116630298
O       1.890205717     -0.540587882     -0.174425374
           3
  t=        75.00000    9    5
H     -14.064311128     -3.247753710    -32.596979765
H     -10.405989855     10.347129125     35.240301878
O       1.895677506     -0.542159074     -0.174941303
           3
  t=        75.25000    9    5
H     -14.114393932     -3.259193672    -32.712470695
H     -10.442752682     10.383506581     35.363980344
O       1.901149590     -0.543730335     -0.175457185
           3
  t=        75.50000    9    5
H     -14.164479698     -3.270634469    -32.827969199
H     -10.479517184     10.419885953     35.487665646
O       1.906621965     -0.545301663     -0.175973020
           3
  t=        75.75000    9    5
H     -14.214568407     -3.282076097    -32.943475223
H     -10.516283348     10.456267227     35.611357738
O       1.912094631     -0.546873059     -0.176488810
           3
  t=        76.00000    9    5
H     -14.264660036     -3.293518550    -33.058988715
H     -10.553051163     10.492650390     35.735056574
O       1.917567585     -0.548444521     -0.177004554
           3
  t=        76.25000    9    5
H     -14.314754567     -3.304961822    -33.174509623
H     -10.589820618     10.529035429     35.858762105
O       1.923040825     -0.550016051     -0.177520252
           3
  t=        76.50000    9    5
H     -14.364851978     -3.316405907    -33.290037896
H     -10.626591702     10.565422331     35.982474287
O       1.928514349     -0.551587646     -0.178035906
           3
  t=        76.75000    9    5
H     -14.414952249     -3.327850800    -33.405573483
H     -10.663364402     10.601811082     36.106193073
O       1.933988155     -0.553159308     -0.178551515
           3
  t=        77.00000    9    5
H     -14.465055361     -3.339296495    -33.521116334
H     -10.700138708     10.638201672     36.229918420
O       1.939462242     -0.554731034     -0.179067079
           3
  t=        77.25000    9    5
H     -14.515161295     -3.350742986    -33.636666398
H     -10.736914609     10.674594086     36.353650281
O       1.944936606     -0.556302825     -0.179582599
           3
  t=        77.50000    9    5
H     -14.565270029     -3.362190270    -33.752223628
H     -10.773692093     10.710988312     36.477388613
O       1.950411247     -0.557874681     -0.180098076
           3
  t=        77.75000    9    5
H     -14.615381547     -3.373638339    -33.867787973
H     -10.810471151     10.747384339     36.601133372
O       1.955886163     -0.559446601     -0.180613509
           3
  t=        78.00000    9    5
H     -14.665495827     -3.385087189    -33.983359386
H     -10.847251772     10.783782154     36.724884516
O       1.961361351     -0.561018583     -0.181128900
           3
  t=        78.25000    9    5
H     -14.715612852     -3.396536815    -34.098937819
H     -10.884033944     10.820181745     36.848642000
O       1.966836809     -0.562590630     -0.181644247
           3
  t=        78.50000    9    5
H     -14.765732603     -3.407987211    -34.214523224
H     -10.920817657     10.856583101     36.972405783
O       1.972312537     -0.564162738     -0.182159552
           3
  t=        78.75000    9    5
H     -14.815855061     -3.419438372    -34.330115555
H     -10.957602902     10.892986208     37.096175822
O       1.977788531     -0.565734909     -0.182674815
           3
  t=        79.00000    9    5
H     -14.865980209     -3.430890293    -34.445714766
H     -10.994389667     10.929391057     37.219952077
O       1.983264791     -0.567307142     -0.183190036
           3
  t=        79.25000    9    5
H     -14.916108027     -3.442342969    -34.561320810
H     -11.031177943     10.965797634     37.343734505
O       1.988741315     -0.568879436     -0.183705215
           3
  t=        79.50000    9    5
H     -14.966238499     -3.453796396    -34.676933642
H     -11.067967719     11.002205929     37.467523067
O       1.994218100     -0.570451791     -0.184220353
           3
  t=        79.75000    9    5
H     -15.016371606     -3.465250567    -34.792553217
H     -11.104758986     11.038615931     37.591317721
O       1.999695145     -0.572024206     -0.184735450
           3
  t=        80.00000    9    5
H     -15.066507331     -3.476705479    -34.908179491
H     -11.141551733     11.075027628     37.715118427
O       2.005172448     -0.573596682     -0.185250507
           3
  t=        80.25000    9    5
H     -15.116645656     -3.488161127    -35.023812419
H     -11.178345952     11.111441009     37.838925147
O       2.010650008     -0.575169217     -0.185765523
           3
  t=        80.50000    9    5
H     -15.166786565     -3.499617505    -35.139451957
H     -11.215141632     11.147856063     37.962737841
O       2.016127822     -0.576741812     -0.186280499
           3
  t=        80.75000    9    5
H     -15.216930040     -3.511074608    -35.255098063
H     -11.251938763     11.184272779     38.086556470
O       2.021605890     -0.578314466     -0.186795435
           3
  t=        81.00000    9    5
H     -15.267076064     -3.522532434    -35.370750694
H     -11.288737336     11.220691146     38.210380996
O       2.027084209     -0.579887178     -0.187310331
           3
  t=        81.25000    9    5
H     -15.317224621     -3.533990975    -35.486409807
H     -11.325537343     11.257111154     38.334211380
O       2.032562779     -0.581459949     -0.187825189
           3
  t=        81.50000    9    5
H     -15.367375694     -3.545450229    -35.602075360
H     -11.362338773     11.293532792     38.458047585
O       2.038041596     -0.583032778     -0.188340007
           3
  t=        81.75000    9    5
H     -15.417529266     -3.556910190    -35.717747311
H     -11.399141617     11.329956050     38.581889574
O       2.043520660     -0.584605664     -0.188854786
           3
  t=        82.00000    9    5
H     -15.467685323     -3.568370854    -35.833425620
H     -11.435945866     11.366380917     38.705737309
O       2.048999969     -0.586178607     -0.189369527
           3
  t=        82.25000    9    5
H     -15.517843846     -3.579832216    -35.949110245
H     -11.472751511     11.402807384     38.829590755
O       2.054479522     -0.587751607     -0.189884230
           3
  t=        82.50000    9    5
H     -15.568004821     -3.591294272    -36.064801147
H     -11.509558544     11.439235438     38.953449873
O       2.059959316     -0.589324663     -0.190398895
           3
  t=        82.75000    9    5
H     -15.618168232     -3.602757017    -36.180498284
H     -11.546366955     11.475665072     39.077314630
O       2.065439351     -0.590897775     -0.190913522
           3
  t=        83.00000    9    5
H     -15.668334064     -3.614220448    -36.296201618
H     -11.583176735     11.512096274     39.201184988
O       2.070919624     -0.592470943     -0.191428111
           3
  t=        83.25000    9    5
H     -15.718502299     -3.625684560    -36.411911110
H     -11.619987877     11.548529036     39.325060914
O       2.076400135     -0.594044166     -0.191942664
           3
  t=        83.50000    9    5
H     -15.768672924     -3.637149348    -36.527626719
H     -11.656800370     11.584963346     39.448942371
O       2.081880881     -0.595617445     -0.192457179
           3
  t=        83.75000    9    5
H     -15.818845924     -3.648614809    -36.643348408
H     -11.693614208     11.621399195     39.572829325
O       2.087361862     -0.597190778     -0.192971658
           3
  t=        84.00000    9    5
H     -15.869021282     -3.660080938    -36.759076138
H     -11.730429380     11.657836574     39.696721743
O       2.092843076     -0.598764165     -0.193486100
           3
  t=        84.25000    9    5
H     -15.919198985     -3.671547731    -36.874809872
H     -11.767245880     11.694275474     39.820619589
O       2.098324520     -0.600337606     -0.194000507
           3
  t=        84.50000    9    5
H     -15.969379017     -3.683015184    -36.990549573
H     -11.804063698     11.730715884     39.944522831
O       2.103806195     -0.601911100     -0.194514877
           3
  t=        84.75000    9    5
H     -16.019561365     -3.694483292    -37.106295202
H     -11.840882826     11.767157795     40.068431434
O       2.109288098     -0.603484648     -0.195029211
           3
  t=        85.00000    9    5
H     -16.069746012     -3.705952053    -37.222046724
H     -11.877703257     11.803601199     40.192345367
O       2.114770228     -0.605058249     -0.195543510
           3
  t=        85.25000    9    5
H     -16.119932946     -3.717421461    -37.337804101
H     -11.914524982     11.840046085     40.316264596
O       2.120252584     -0.606631903     -0.196057774
           3
  t=        85.50000    9    5
H     -16.170122152     -3.728891513    -37.453567298
H     -11.951347993     11.876492445     40.440189088
O       2.125735164     -0.608205609     -0.196572002
           3
  t=        85.75000    9    5
H     -16.220313616     -3.740362205    -37.569336279
H     -11.988172282     11.912940270     40.564118812
O       2.131217967     -0.609779367     -0.197086196
           3
  t=        86.00000    9    5
H     -16.270507323     -3.751833533    -37.685111009
H     -12.024997842     11.949389551     40.688053736
O       2.136700991     -0.611353176     -0.197600355
           3
  t=        86.25000    9    5
H     -16.320703261     -3.763305493    -37.800891452
H     -12.061824664     11.985840279     40.811993828
O       2.142184235     -0.612927037     -0.198114480
           3
  t=        86.50000    9    5
H     -16.370901415     -3.774778081    -37.916677573
H     -12.098652741     12.022292445     40.935939057
O       2.147667698     -0.614500949     -0.198628571
           3
  t=        86.75000    9    5
H     -16.421101772     -3.786251294    -38.032469339
H     -12.135482066     12.058746040     41.059889391
O       2.153151378     -0.616074911     -0.199142628
           3
  t=        87.00000    9    5
H     -16.471304318     -3.797725128    -38.148266714
H     -12.172312630     12.095201057     41.183844801
O       2.158635275     -0.617648924     -0.199656651
           3
  t=        87.25000    9    5
H     -16.521509040     -3.809199578    -38.264069665
H     -12.209144427     12.131657486     41.307805256
O       2.164119386     -0.619222987     -0.200170641
           3
  t=        87.50000    9    5
H     -16.571715925     -3.820674643    -38.379878159
H     -12.245977448     12.168115318     41.431770725
O       2.169603711     -0.620797100     -0.200684597
           3
  t=        87.75000    9    5
H     -16.621924960     -3.832150316    -38.495692162
H     -12.282811687     12.204574547     41.555741179
O       2.175088247     -0.622371263     -0.201198521
           3
  t=        88.00000    9    5
H     -16.672136132     -3.843626596    -38.611511641
H     -12.319647136     12.241035162     41.679716588
O       2.180572995     -0.623945474     -0.201712411
           3
  t=        88.25000    9    5
H     -16.722349428     -3.855103478    -38.727336563
H     -12.356483788     12.277497157     41.803696923
O       2.186057952     -0.625519735     -0.202226269
           3
  t=        88.50000    9    5
H     -16.772564835     -3.866580960    -38.843166897
H     -12.393321636     12.313960522     41.927682154
O       2.191543118     -0.627094044     -0.202740095
           3
  t=        88.75000    9    5
H     -16.822782341     -3.878059036    -38.959002610
H     -12.430160672     12.350425250     42.051672252
O       2.197028491     -0.628668402     -0.203253888
           3
  t=        89.00000    9    5
H     -16.873001933     -3.889537705    -39.074843670
H     -12.467000890     12.386891333     42.175667190
O       2.202514070     -0.630242807     -0.203767649
           3
  t=        89.25000    9    5
H     -16.923223598     -3.901016962    -39.190690045
H     -12.503842283     12.423358762     42.299666939
O       2.207999853     -0.631817261     -0.204281379
           3
  t=        89.50000    9    5
H     -16.973447326     -3.912496803    -39.306541705
H     -12.540684844     12.459827531     42.423671470
O       2.213485840     -0.633391762     -0.204795077
           3
  t=        89.75000    9    5
H     -17.023673102     -3.923977227    -39.422398618
H     -12.577528565     12.496297630     42.547680756
O       2.218972029     -0.634966310     -0.205308743
           3
  t=        90.00000    9    5
H     -17.073900916     -3.935458229    -39.538260754
H     -12.614373440     12.532769053     42.671694769
O       2.224458419     -0.636540905     -0.205822378
           3
  t=        90.25000    9    5
H     -17.124130755     -3.946939805    -39.654128083
H     -12.651219463     12.569241791     42.795713481
O       2.229945009     -0.638115547     -0.206335982
           3
  t=        90.50000    9    5
H     -17.174362607     -3.958421953    -39.770000573
H     -12.688066626     12.605715838     42.919736867
O       2.235431798     -0.639690235     -0.206849556
           3
  t=        90.75000    9    5
H     -17.224596461     -3.969904669    -39.885878195
H     -12.724914924     12.642191184     43.043764898
O       2.240918785     -0.641264969     -0.207363098
           3
  t=        91.00000    9    5
H     -17.274832305     -3.981387951    -40.001760920
H     -12.761764349     12.678667824     43.167797548
O       2.246405967     -0.642839749     -0.207876610
           3
  t=        91.25000    9    5
H     -17.325070127     -3.992871794    -40.117648718
H     -12.798614894     12.715145749     43.291834790
O       2.251893346     -0.644414575     -0.208390092
           3
  t=        91.50000    9    5
H     -17.375309916     -4.004356195    -40.233541560
H     -12.835466555     12.751624953     43.415876599
O       2.257380918     -0.645989446     -0.208903544
           3
  t=        91.75000    9    5
H     -17.425551661     -4.015841152    -40.349439417
H     -12.872319323     12.788105427     43.539922948
O       2.262868683     -0.647564362     -0.209416966
           3
  t=        92.00000    9    5
H     -17.475795351     -4.027326661    -40.465342261
H     -12.909173194     12.824587166     43.663973812
O       2.268356641     -0.649139323     -0.209930358
           3
  t=        92.25000    9    5
H     -17.526040973     -4.038812720    -40.581250062
H     -12.946028160     12.861070160     43.788029164
O       2.273844789     -0.650714329     -0.210443721
           3
  t=        92.50000    9    5
H     -17.576288518     -4.050299324    -40.697162793
H     -12.982884215     12.897554404     43.912088980
O       2.279333127     -0.652289379     -0.210957054
           3
  t=        92.75000    9    5
H     -17.626537974     -4.061786471    -40.813080425
H     -13.019741353     12.934039891     44.036153235
O       2.284821653     -0.653864473     -0.211470358
           3
  t=        93.00000    9    5
H     -17.676789330     -4.073274158    -40.929002932
H     -13.056599568     12.970526613     44.160221903
O       2.290310367     -0.655439611     -0.211983633
           3
  t=        93.25000    9    5
H     -17.727042576     -4.084762382    -41.044930285
H     -13.093458854     13.007014563     44.284294960
O       2.295799268     -0.657014792     -0.212496880
           3
  t=        93.50000    9    5
H     -17.777297701     -4.096251139    -41.160862458
H     -13.130319205     13.043503735     44.408372382
O       2.301288354     -0.658590017     -0.213010097
           3
  t=        93.75000    9    5
H     -17.827554693     -4.107740428    -41.276799423
H     -13.167180615     13.079994121     44.532454143
O       2.306777625     -0.660165285     -0.213523286
           3
  t=        94.00000    9    5
H     -17.877813544     -4.119230244    -41.392741154
H     -13.204043078     13.116485716     44.656540220
O       2.312267079     -0.661740596     -0.214036447
           3
  t=        94.25000    9    5
H     -17.928074242     -4.130720586    -41.508687624
H     -13.240906587     13.152978512     44.780630589
O       2.317756715     -0.663315949     -0.214549579
           3
  t=        94.50000    9    5
H     -17.978336776     -4.142211449    -41.624638806
H     -13.277771138     13.189472502     44.904725227
O       2.323246533     -0.664891345     -0.215062684
           3
  t=        94.75000    9    5
H     -18.028601138     -4.153702832    -41.740594675
H     -13.314636725     13.225967681     45.028824109
O       2.328736531     -0.666466782     -0.215575760
           3
  t=        95.00000    9    5
H     -18.078867316     -4.165194731    -41.856555205
H     -13.351503341     13.262464041     45.152927212
O       2.334226708     -0.668042262     -0.216088809
           3
  t=        95.25000    9    5
H     -18.129135300     -4.176687144    -41.972520369
H     -13.388370982     13.298961576     45.277034514
O       2.339717064     -0.669617783     -0.216601831
           3
  t=        95.50000    9    5
H     -18.179405081     -4.188180067    -42.088490143
H     -13.425239641     13.335460280     45.401145991
O       2.345207597     -0.671193346     -0.217114825
           3
  t=        95.75000    9    5
H     -18.229676648     -4.199673498    -42.204464501
H     -13.462109312     13.371960146     45.525261621
O       2.350698307     -0.672768950     -0.217627792
           3
  t=        96.00000    9    5
H     -18.279949992     -4.211167435    -42.320443419
H     -13.498979991     13.408461167     45.649381381
O       2.356189191     -0.674344595     -0.218140732
           3
  t=        96.25000    9    5
H     -18.330225103     -4.222661874    -42.436426870
H     -13.535851672     13.444963339     45.773505249
O       2.361680251     -0.675920281     -0.218653645
           3
  t=        96.50000    9    5
H     -18.380501971     -4.234156812    -42.552414831
H     -13.572724349     13.481466654     45.897633202
O       2.367171484     -0.677496008     -0.219166531
           3
  t=        96.75000    9    5
H     -18.430780587     -4.245652248    -42.668407278
H     -13.609598017     13.517971105     46.021765218
O       2.372662889     -0.679071775     -0.219679391
           3
  t=        97.00000    9    5
H     -18.481060941     -4.257148178    -42.784404185
H     -13.646472671     13.554476689     46.145901276
O       2.378154466     -0.680647581     -0.220192224
           3
  t=        97.25000    9    5
H     -18.531343024     -4.268644600    -42.900405529
H     -13.683348305     13.590983397     46.270041354
O       2.383646214     -0.682223428     -0.220705031
           3
  t=        97.50000    9    5
H     -18.581626826     -4.280141511    -43.016411286
H     -13.720224914     13.627491224     46.394185430
O       2.389138131     -0.683799315     -0.221217812
           3
  t=        97.75000    9    5
H     -18.631912338     -4.291638908    -43.132421432
H     -13.757102492     13.664000164     46.518333484
O       2.394630218     -0.685375241     -0.221730567
           3
  t=        98.00000    9    5
H     -18.682199551     -4.303136789    -43.248435943
H     -13.793981035     13.700510211     46.642485493
O       2.400122472     -0.686951206     -0.222243296
           3
  t=        98.25000    9    5
H     -18.732488455     -4.314635152    -43.364454798
H     -13.830860537     13.737021359     46.766641437
O       2.405614893     -0.688527210     -0.222756000
           3
  t=        98.50000    9    5
H     -18.782779042     -4.326133993    -43.480477971
H     -13.867740994     13.773533603     46.890801295
O       2.411107481     -0.690103253     -0.223268678
           3
  t=        98.75000    9    5
H     -18.833071303     -4.337633311    -43.596505441
H     -13.904622400     13.810046936     47.014965047
O       2.416600233     -0.691679335     -0.223781330
           3
  t=        99.00000    9    5
H     -18.883365228     -4.349133102    -43.712537184
H     -13.941504750     13.846561353     47.139132671
O       2.422093150     -0.693255455     -0.224293958
           3
  t=        99.25000    9    5
H     -18.933660810     -4.360633364    -43.828573179
H     -13.978388039     13.883076848     47.263304148
O       2.427586231     -0.694831614     -0.224806560
           3
  t=        99.50000    9    5
H     -18.983958038     -4.372134096    -43.944613402
H     -14.015272262     13.919593416     47.387479457
O       2.433079474     -0.696407810     -0.225319137
           3
  t=        99.75000    9    5
H     -19.034256904     -4.383635293    -44.060657831
H     -14.052157415     13.956111050     47.511658579
O       2.438572879     -0.697984044     -0.225831689
           3
  t=       100.00000    9    5
H     -19.084557401     -4.395136955    -44.176706445
H     -14.089043492     13.992629746     47.635841493
O       2.444066445     -0.699560316     -0.226344217
           3
  t=       100.25000    9    5
H     -19.134859518     -4.406639078    -44.292759221
H     -14.125930488     14.029149498     47.760028180
O       2.449560171     -0.701136626     -0.226856720
           3
  t=       100.50000    9    5
H     -19.185163248     -4.418141660    -44.408816138
H     -14.162818400     14.065670299     47.884218621
O       2.455054057     -0.702712972     -0.227369199
           3
  t=       100.75000    9    5
H     -19.235468582     -4.429644699    -44.524877174
H     -14.199707221     14.102192146     48.008412795
O       2.460548100     -0.704289356     -0.227881653
           3
  t=       101.00000    9    5
H     -19.285775512     -4.441148192    -44.640942308
H     -14.236596948     14.138715032     48.132610683
O       2.466042302     -0.705865777     -0.228394084
           3
  t=       101.25000    9    5
H     -19.336084030     -4.452652137    -44.757011518
H     -14.273487575     14.175238952     48.256812267
O       2.471536660     -0.707442234     -0.228906490
           3
  t=       101.50000    9    5
H     -19.386394126     -4.464156532    -44.873084784
H     -14.310379098     14.211763901     48.381017528
O       2.477031174     -0.709018728     -0.229418872
           3
  t=       101.75000    9    5
H     -19.436705794     -4.475661375    -44.989162085
H     -14.347271512     14.248289873     48.505226446
O       2.482525843     -0.710595258     -0.229931231
           3
  t=       102.00000    9    5
H     -19.487019024     -4.487166662    -45.105243400
H     -14.384164814     14.284816863     48.629439003
O       2.488020666     -0.712171824     -0.230443566
           3
  t=       102.25000    9    5
H     -19.537333810     -4.498672392    -45.221328708
H     -14.421058997     14.321344867     48.753655181
O       2.493515643     -0.713748426     -0.230955877
           3
  t=       102.50000    9    5
H     -19.587650142     -4.510178563    -45.337417989
H     -14.457954058     14.357873878     48.877874960
O       2.499010773     -0.715325064     -0.231468166
           3
  t=       102.75000    9    5
H     -19.637968013     -4.521685173    -45.453511223
H     -14.494849992     14.394403893     49.002098324
O       2.504506055     -0.716901737     -0.231980431
           3
  t=       103.00000    9    5
H     -19.688287415     -4.533192218    -45.569608389
H     -14.531746795     14.430934905     49.126325253
O       2.510001488     -0.718478446     -0.232492672
           3
  t=       103.25000    9    5
H     -19.738608341     -4.544699698    -45.685709469
H     -14.568644463     14.467466909     49.250555730
O       2.515497072     -0.720055190     -0.233004891
           3
  t=       103.50000    9    5
H     -19.788930782     -4.556207609    -45.801814441
H     -14.605542990     14.503999901     49.374789736
O       2.520992805     -0.721631969     -0.233517087
           3
  t=       103.75000    9    5
H     -19.839254730     -4.567715950    -45.917923286
H     -14.642442373     14.540533876     49.499027255
O       2.526488687     -0.723208782     -0.234029260
           3
  t=       104.00000    9    5
H     -19.889580179     -4.579224718    -46.034035985
H     -14.679342607     14.577068829     49.623268268
O       2.531984717     -0.724785631     -0.234541411
           3
  t=       104.25000    9    5
H     -19.939907121     -4.590733912    -46.150152519
H     -14.716243688     14.613604755     49.747512759
O       2.537480895     -0.726362514     -0.235053539
           3
  t=       104.50000    9    5
H     -19.990235547     -4.602243529    -46.266272867
H     -14.753145612     14.650141648     49.871760709
O       2.542977219     -0.727939431     -0.235565644
           3
  t=       104.75000    9    5
H     -20.040565451     -4.613753567    -46.382397012
H     -14.790048375     14.686679505     49.996012102
O       2.548473689     -0.729516383     -0.236077727
           3
  t=       105.00000    9    5
H     -20.090896825     -4.625264024    -46.498524934
H     -14.826951972     14.723218321     50.120266920
O       2.553970305     -0.731093368     -0.236589789
           3
  t=       105.25000    9    5
H     -20.141229662     -4.636774898    -46.614656614
H     -14.863856399     14.759758090     50.244525147
O       2.559467065     -0.732670388     -0.237101828
           3
  t=       105.50000    9    5
H     -20.191563954     -4.648286186    -46.730792035
H     -14.900761652     14.796298808     50.368786766
O       2.564963968     -0.734247441     -0.237613845
           3
  t=       105.75000    9    5
H     -20.241899695     -4.659797888    -46.846931176
H     -14.937667728     14.832840470     50.493051760
O       2.570461015     -0.735824527     -0.238125840
           3
  t=       106.00000    9    5
H     -20.292236877     -4.671310001    -46.963074020
H     -14.974574621     14.869383072     50.617320112
O       2.575958204     -0.737401647     -0.238637814
           3
  t=       106.25000    9    5
H     -20.342575492     -4.682822522    -47.079220549
H     -15.011482328     14.905926609     50.741591806
O       2.581455535     -0.738978800     -0.239149766
           3
  t=       106.50000    9    5
H     -20.392915535     -4.694335450    -47.195370745
H     -15.048390845     14.942471076     50.865866827
O       2.586953007     -0.740555986     -0.239661697
           3
  t=       106.75000    9    5
H     -20.443256997     -4.705848783    -47.311524589
H     -15.085300168     14.979016470     50.990145157
O       2.592450619     -0.742133204     -0.240173606
           3
  t=       107.00000    9    5
H     -20.493599872     -4.717362519    -47.427682064
H     -15.122210293     15.015562785     51.114426780
O       2.597948370     -0.743710456     -0.240685494
           3
  t=       107.25000    9    5
H     -20.543944153     -4.728876656    -47.543843152
H     -15.159121216     15.052110016     51.238711681
O       2.603446260     -0.745287740     -0.241197361
           3
  t=       107.50000    9    5
H     -20.594289833     -4.740391191    -47.660007836
H     -15.196032934     15.088658161     51.362999843
O       2.608944289     -0.746865056     -0.241709207
           3
  t=       107.75000    9    5
H     -20.644636905     -4.751906124    -47.776176097
H     -15.232945441     15.125207213     51.487291252
O       2.614442455     -0.748442404     -0.242221032
           3
  t=       108.00000    9    5
H     -20.694985362     -4.763421452    -47.892347920
H     -15.269858736     15.161757169     51.611585891
O       2.619940758     -0.750019785     -0.242732836
           3
  t=       108.25000    9    5
H     -20.745335198     -4.774937173    -48.008523285
H     -15.306772812     15.198308025     51.735883744
O       2.625439197     -0.751597197     -0.243244619
           3
  t=       108.50000    9    5
H     -20.795686406     -4.786453286    -48.124702178
H     -15.343687668     15.234859776     51.860184797
O       2.630937771     -0.753174642     -0.243756382
           3
  t=       108.75000    9    5
H     -20.846038980     -4.797969788    -48.240884579
H     -15.380603299     15.271412417     51.984489034
O       2.636436481     -0.754752117     -0.244268124
           3
  t=       109.00000    9    5
H     -20.896392912     -4.809486677    -48.357070474
H     -15.417519702     15.307965945     52.108796440
O       2.641935325     -0.756329624     -0.244779846
           3
  t=       109.25000    9    5
H     -20.946748196     -4.821003953    -48.473259844
H     -15.454436872     15.344520355     52.233107000
O       2.647434302     -0.757907163     -0.245291548
           3
  t=       109.50000    9    5
H     -20.997104826     -4.832521612    -48.589452674
H     -15.491354807     15.381075643     52.357420698
O       2.652933412     -0.759484733     -0.245803229
           3
  t=       109.75000    9    5
H     -21.047462795     -4.844039654    -48.705648946
H     -15.528273502     15.417631806     52.481737521
O       2.658432655     -0.761062333     -0.246314890
           3
  t=       110.00000    9    5
H     -21.097822097     -4.855558075    -48.821848645
H     -15.565192953     15.454188838     52.606057452
O       2.663932029     -0.762639965     -0.246826532
           3
  t=       110.25000    9    5
H     -21.148182726     -4.867076876    -48.938051755
H     -15.602113158     15.490746735     52.730380479
O       2.669431534     -0.764217627     -0.247338153
           3
  t=       110.50000    9    5
H     -21.198544675     -4.878596053    -49.054258258
H     -15.639034113     15.527305495     52.854706585
O       2.674931170     -0.765795319     -0.247849755
           3
  t=       110.75000    9    5
H     -21.248907937     -4.890115605    -49.170468140
H     -15.675955814     15.563865112     52.979035757
O       2.680430935     -0.767373042     -0.248361337
           3
  t=       111.00000    9    5
H     -21.299272508     -4.901635530    -49.286681384
H     -15.712878257     15.600425582     53.103367980
O       2.685930830     -0.768950796     -0.248872899
           3
  t=       111.25000    9    5
H     -21.349638380     -4.913155827    -49.402897974
H     -15.749801440     15.636986902     53.227703240
O       2.691430853     -0.770528579     -0.249384442
           3
  t=       111.50000    9    5
H     -21.400005547     -4.924676494    -49.519117895
H     -15.786725359     15.673549068     53.352041523
O       2.696931004     -0.772106393     -0.249895965
           3
  t=       111.75000    9    5
H     -21.450374004     -4.936197528    -49.635341131
H     -15.823650009     15.710112075     53.476382815
O       2.702431283     -0.773684236     -0.250407469
           3
  t=       112.00000    9    5
H     -21.500743744     -4.947718929    -49.751567667
H     -15.860575389     15.746675920     53.600727101
O       2.707931688     -0.775262109     -0.250918954
           3
  t=       112.25000    9    5
H     -21.551114761     -4.959240695    -49.867797488
H     -15.897501494     15.783240599     53.725074369
O       2.713432220     -0.776840012     -0.251430420
           3
  t=       112.50000    9    5
H     -21.601487050     -4.970762823    -49.984030578
H     -15.934428321     15.819806108     53.849424603
O       2.718932877     -0.778417944     -0.251941867
           3
  t=       112.75000    9    5
H     -21.651860604     -4.982285313    -50.100266921
H     -15.971355866     15.856372443     53.973777791
O       2.724433659     -0.779995905     -0.252453294
           3
  t=       113.00000    9    5
H     -21.702235417     -4.993808163    -50.216506504
H     -16.008284127     15.892939601     54.098133919
O       2.729934565     -0.781573895     -0.252964703
           3
  t=       113.25000    9    5
H     -21.752611484     -5.005331370    -50.332749311
H     -16.045213101     15.929507577     54.222492974
O       2.735435596     -0.783151915     -0.253476094
           3
  t=       113.50000    9    5
H     -21.802988799     -5.016854934    -50.448995327
H     -16.082142783     15.966076368     54.346854942
O       2.740936750     -0.784729963     -0.253987465
           3
  t=       113.75000    9    5
H     -21.853367356     -5.028378852    -50.565244537
H     -16.119073170     16.002645970     54.471219809
O       2.746438026     -0.786308040     -0.254498818
           3
  t=       114.00000    9    5
H     -21.903747149     -5.039903124    -50.681496927
H     -16.156004260     16.039216380     54.595587563
O       2.751939425     -0.787886146     -0.255010153
           3
  t=       114.25000    9    5
H     -21.954128173     -5.051427747    -50.797752483
H     -16.192936049     16.075787593     54.719958191
O       2.757440945     -0.789464280     -0.255521469
           3
  t=       114.50000    9    5
H     -22.004510422     -5.062952720    -50.914011189
H     -16.229868534     16.112359607     54.844331679
O       2.762942586     -0.791042443     -0.256032767
           3
  t=       114.75000    9    5
H     -22.054893891     -5.074478041    -51.030273032
H     -16.266801712     16.148932417     54.968708014
O       2.768444348     -0.792620634     -0.256544046
           3
  t=       115.00000    9    5
H     -22.105278573     -5.086003709    -51.146537997
H     -16.303735579     16.185506019     55.093087184
O       2.773946230     -0.794198853     -0.257055308
           3
  t=       115.25000    9    5
H     -22.155664464     -5.097529722    -51.262806071
H     -16.340670133     16.222080412     55.217469176
O       2.779448231     -0.795777100     -0.257566551
           3
  t=       115.50000    9    5
H     -22.206051558     -5.109056079    -51.379077239
H     -16.377605370     16.258655590     55.341853978
O       2.784950351     -0.797355375     -0.258077777
           3
  t=       115.75000    9    5
H     -22.256439849     -5.120582778    -51.495351487
H     -16.414541288     16.295231550     55.466241576
O       2.790452589     -0.798933677     -0.258588984
           3
  t=       116.00000    9    5
H     -22.306829332     -5.132109817    -51.611628801
H     -16.451477882     16.331808289     55.590631958
O       2.795954945     -0.800512007     -0.259100174
           3
  t=       116.25000    9    5
H     -22.357220001     -5.143637195    -51.727909168
H     -16.488415151     16.368385803     55.715025111
O       2.801457418     -0.802090365     -0.259611346
           3
  t=       116.50000    9    5
H     -22.407611852     -5.155164911    -51.844192574
H     -16.525353092     16.404964089     55.839421024
O       2.806960008     -0.803668750     -0.260122501
           3
  t=       116.75000    9    5
H     -22.458004879     -5.166692963    -51.960479005
H     -16.562291700     16.441543143     55.963819684
O       2.812462714     -0.805247162     -0.260633638
           3
  t=       117.00000    9    5
H     -22.508399076     -5.178221350    -52.076768448
H     -16.599230973     16.478122962     56.088221079
O       2.817965536     -0.806825601     -0.261144757
           3
  t=       117.25000    9    5
H     -22.558794439     -5.189750070    -52.193060890
H     -16.636170909     16.514703543     56.212625197
O       2.823468473     -0.808404068     -0.261655859
           3
  t=       117.50000    9    5
H     -22.609190963     -5.201279121    -52.309356317
H     -16.673111504     16.551284882     56.337032026
O       2.828971525     -0.809982561     -0.262166944
           3
  t=       117.75000    9    5
H     -22.659588641     -5.212808502    -52.425654715
H     -16.710052756     16.587866976     56.461441553
O       2.834474690     -0.811561081     -0.262678012
           3
  t=       118.00000    9    5
H     -22.709987469     -5.224338212    -52.541956073
H     -16.746994661     16.624449821     56.585853767
O       2.839977970     -0.813139628     -0.263189062
           3
  t=       118.25000    9    5
H     -22.760387442     -5.235868249    -52.658260376
H     -16.783937216     16.661033415     56.710268657
O       2.845481362     -0.814718201     -0.263700096
           3
  t=       118.50000    9    5
H     -22.810788555     -5.247398612    -52.774567612
H     -16.820880419     16.697617753     56.834686210
O       2.850984868     -0.816296800     -0.264211112
           3
  t=       118.75000    9    5
H     -22.861190802     -5.258929300    -52.890877768
H     -16.857824268     16.734202833     56.959106414
O       2.856488485     -0.817875426     -0.264722112
           3
  t=       119.00000    9    5
H     -22.911594180     -5.270460310    -53.007190831
H     -16.894768758     16.770788652     57.083529260
O       2.861992214     -0.819454078     -0.265233095
           3
  t=       119.25000    9    5
H     -22.961998682     -5.281991642    -53.123506789
H     -16.931713887     16.807375206     57.207954733
O       2.867496054     -0.821032757     -0.265744061
           3
  t=       119.50000    9    5
H     -23.012404304     -5.293523294    -53.239825628
H     -16.968659653     16.843962492     57.332382825
O       2.873000005     -0.822611461     -0.266255010
           3
  t=       119.75000    9    5
H     -23.062811041     -5.305055265    -53.356147337
H     -17.005606053     16.880550507     57.456813522
O       2.878504066     -0.824190191     -0.266765943
           3
  t=       120.00000    9    5
H     -23.113218888     -5.316587553    -53.472471903
H     -17.042553083     16.917139247     57.581246814
O       2.884008236     -0.825768946     -0.267276859
           3
  t=       120.25000    9    5
H     -23.163627840     -5.328120158    -53.588799313
H     -17.079500742     16.953728710     57.705682690
O       2.889512516     -0.827347727     -0.267787759
           3
  t=       120.50000    9    5
H     -23.214037892     -5.339653077    -53.705129555
H     -17.116449026     16.990318893     57.830121138
O       2.895016905     -0.828926534     -0.268298643
           3
  t=       120.75000    9    5
H     -23.264449041     -5.351186309    -53.821462617
H     -17.153397933     17.026909791     57.954562148
O       2.900521402     -0.830505366     -0.268809510
           3
  t=       121.00000    9    5
H     -23.314861280     -5.362719853    -53.937798486
H     -17.190347460     17.063501404     58.079005708
O       2.906026007     -0.832084224     -0.269320361
           3
  t=       121.25000    9    5
H     -23.365274605     -5.374253708    -54.054137152
H     -17.227297604     17.100093726     58.203451808
O       2.911530719     -0.833663106     -0.269831196
           3
  t=       121.50000    9    5
H     -23.415689012     -5.385787872    -54.170478601
H     -17.264248363     17.136686756     58.327900437
O       2.917035537     -0.835242014     -0.270342015
           3
  t=       121.75000    9    5
H     -23.466104496     -5.397322345    -54.286822822
H     -17.301199735     17.173280490     58.452351583
O       2.922540463     -0.836820947     -0.270852818
           3
  t=       122.00000    9    5
H     -23.516521052     -5.408857124    -54.403169803
H     -17.338151716     17.209874925     58.576805237
O       2.928045494     -0.838399904     -0.271363605
           3
  t=       122.25000    9    5
H     -23.566938676     -5.420392208    -54.519519532
H     -17.375104304     17.246470058     58.701261388
O       2.933550631     -0.839978887     -0.271874376
           3
  t=       122.50000    9    5
H     -23.617357363     -5.431927596    -54.635871998
H     -17.412057496     17.283065886     58.825720024
O       2.939055873     -0.841557893     -0.272385131
           3
  t=       122.75000    9    5
H     -23.667777108     -5.443463288    -54.752227188
H     -17.449011290     17.319662407     58.950181137
O       2.944561219     -0.843136925     -0.272895870
           3
  t=       123.00000    9    5
H     -23.718197908     -5.454999281    -54.868585092
H     -17.485965683     17.356259618     59.074644714
O       2.950066670     -0.844715981     -0.273406594
           3
  t=       123.25000    9    5
H     -23.768619757     -5.466535574    -54.984945698
H     -17.522920673     17.392857514     59.199110747
O       2.955572225     -0.846295061     -0.273917303
           3
  t=       123.50000    9    5
H     -23.819042651     -5.478072166    -55.101308995
H     -17.559876257     17.429456095     59.323579223
O       2.961077882     -0.847874165     -0.274427996
           3
  t=       123.75000    9    5
H     -23.869466586     -5.489609056    -55.217674970
H     -17.596832432     17.466055356     59.448050135
O       2.966583643     -0.849453294     -0.274938673
           3
  t=       124.00000    9    5
H     -23.919891557     -5.501146242    -55.334043614
H     -17.633789197     17.502655295     59.572523470
O       2.972089506     -0.851032447     -0.275449335
           3
  t=       124.25000    9    5
H     -23.970317560     -5.512683724    -55.450414914
H     -17.670746549     17.539255909     59.696999219
O       2.977595471     -0.852611623     -0.275959982
           3
  t=       124.50000    9    5
H     -24.020744590     -5.524221499    -55.566788860
H     -17.707704485     17.575857196     59.821477372
O       2.983101537     -0.854190824     -0.276470613
           3
  t=       124.75000    9    5
H     -24.071172644     -5.535759568    -55.683165441
H     -17.744663003     17.612459152     59.945957920
O       2.988607705     -0.855770048     -0.276981230
           3
  t=       125.00000    9    5
H     -24.121601717     -5.547297928    -55.799544645
H     -17.781622100     17.649061774     60.070440851
O       2.994113973     -0.857349295     -0.277491831
           3
  t=       125.25000    9    5
H     -24.172031805     -5.558836579    -55.915926462
H     -17.818581774     17.685665061     60.194926157
O       2.999620342     -0.858928567     -0.278002417
           3
  t=       125.50000    9    5
H     -24.222462903     -5.570375519    -56.032310881
H     -17.855542023     17.722269009     60.319413827
O       3.005126811     -0.860507862     -0.278512989
           3
  t=       125.75000    9    5
H     -24.272895008     -5.581914747    -56.148697891
H     -17.892502844     17.758873615     60.443903851
O       3.010633379     -0.862087180     -0.279023545
           3
  t=       126.00000    9    5
H     -24.323328115     -5.593454261    -56.265087482
H     -17.929464234     17.795478877     60.568396221
O       3.016140046     -0.863666521     -0.279534087
           3
  t=       126.25000    9    5
H     -24.373762219     -5.604994062    -56.381479642
H     -17.966426193     17.832084792     60.692890926
O       3.021646811     -0.865245885     -0.280044613
           3
  t=       126.50000    9    5
H     -24.424197318     -5.616534146    -56.497874362
H     -18.003388716     17.868691357     60.817387957
O       3.027153675     -0.866825273     -0.280555125
           3
  t=       126.75000    9    5
H     -24.474633406     -5.628074515    -56.614271630
H     -18.040351803     17.905298571     60.941887304
O       3.032660637     -0.868404683     -0.281065623
           3
  t=       127.00000    9    5
H     -24.525070480     -5.639615165    -56.730671437
H     -18.077315450     17.941906429     61.066388958
O       3.038167696     -0.869984117     -0.281576106
           3
  t=       127.25000    9    5
H     -24.575508536     -5.651156096    -56.847073771
H     -18.114279655     17.978514930     61.190892910
O       3.043674853     -0.871563573     -0.282086574
           3
  t=       127.50000    9    5
H     -24.625947569     -5.662697308    -56.963478624
H     -18.151244416     18.015124070     61.315399150
O       3.049182105     -0.873143052     -0.282597028
           3
  t=       127.75000    9    5
H     -24.676387576     -5.674238798    -57.079885983
H     -18.188209731     18.051733848     61.439907669
O       3.054689454     -0.874722553     -0.283107467
           3
  t=       128.00000    9    5
H     -24.726828552     -5.685780566    -57.196295840
H     -18.225175597     18.088344261     61.564418457
O       3.060196899     -0.876302077     -0.283617893
           3
  t=       128.25000    9    5
H     -24.777270494     -5.697322610    -57.312708184
H     -18.262142013     18.124955305     61.688931506
O       3.065704440     -0.877881623     -0.284128303
           3
  t=       128.50000    9    5
H     -24.827713398     -5.708864929    -57.429123005
H     -18.299108975     18.161566979     61.813446807
O       3.071212075     -0.879461192     -0.284638700
           3
  t=       128.75000    9    5
H     -24.878157260     -5.720407523    -57.545540292
H     -18.336076483     18.198179281     61.937964350
O       3.076719805     -0.881040783     -0.285149083
           3
  t=       129.00000    9    5
H     -24.928602076     -5.731950390    -57.661960037
H     -18.373044533     18.234792206     62.062484126
O       3.082227630     -0.882620396     -0.285659451
           3
  t=       129.25000    9    5
H     -24.979047841     -5.743493530    -57.778382229
H     -18.410013123     18.271405754     62.187006127
O       3.087735548     -0.884200031     -0.286169806
           3
  t=       129.50000    9    5
H     -25.029494553     -5.755036940    -57.894806858
H     -18.446982252     18.308019921     62.311530343
O       3.093243560     -0.885779688     -0.286680146
           3
  t=       129.75000    9    5
H     -25.079942208     -5.766580620    -58.011233915
H     -18.483951916     18.344634705     62.436056766
O       3.098751665     -0.887359366     -0.287190472
           3
  t=       130.00000    9    5
H     -25.130390801     -5.778124569    -58.127663390
H     -18.520922115     18.381250104     62.560585387
O       3.104259863     -0.888939067     -0.287700785
           3
  t=       130.25000    9    5
H     -25.180840329     -5.789668786    -58.244095273
H     -18.557892845     18.417866115     62.685116197
O       3.109768153     -0.890518789     -0.288211084
           3
  t=       130.50000    9    5
H     -25.231290788     -5.801213269    -58.360529554
H     -18.594864106     18.454482736     62.809649188
O       3.115276535     -0.892098533     -0.288721369
           3
  t=       130.75000    9    5
H     -25.281742175     -5.812758018    -58.476966224
H     -18.631835893     18.491099964     62.934184350
O       3.120785009     -0.893678299     -0.289231641
           3
  t=       131.00000    9    5
H     -25.332194485     -5.824303032    -58.593405274
H     -18.668808206     18.527717797     63.058721676
O       3.126293575     -0.895258086     -0.289741898
           3
  t=       131.25000    9    5
H     -25.382647715     -5.835848310    -58.709846695
H     -18.705781043     18.564336233     63.183261157
O       3.131802231     -0.896837894     -0.290252143
           3
  t=       131.50000    9    5
H     -25.433101862     -5.847393849    -58.826290476
H     -18.742754401     18.600955268     63.307802784
O       3.137310978     -0.898417723     -0.290762373
           3
  t=       131.75000    9    5
H     -25.483556922     -5.858939651    -58.942736608
H     -18.779728278     18.637574902     63.432346549
O       3.142819815     -0.899997574     -0.291272591
           3
  t=       132.00000    9    5
H     -25.534012891     -5.870485713    -59.059185083
H     -18.816702672     18.674195130     63.556892444
O       3.148328742     -0.901577446     -0.291782794
           3
  t=       132.25000    9    5
H     -25.584469765     -5.882032034    -59.175635890
H     -18.853677582     18.710815952     63.681440460
O       3.153837758     -0.903157339     -0.292292985
           3
  t=       132.50000    9    5
H     -25.634927541     -5.893578614    -59.292089022
H     -18.890653004     18.747437365     63.805990588
O       3.159346864     -0.904737253     -0.292803162
           3
  t=       132.75000    9    5
H     -25.685386216     -5.905125451    -59.408544468
H     -18.927628938     18.784059366     63.930542822
O       3.164856058     -0.906317187     -0.293313326
           3
  t=       133.00000    9    5
H     -25.735845786     -5.916672545    -59.525002220
H     -18.964605381     18.820681953     64.055097152
O       3.170365341     -0.907897143     -0.293823477
           3
  t=       133.25000    9    5
H     -25.786306247     -5.928219894    -59.641462269
H     -19.001582331     18.857305125     64.179653570
O       3.175874712     -0.909477119     -0.294333615
           3
  t=       133.50000    9    5
H     -25.836767596     -5.939767498    -59.757924606
H     -19.038559787     18.893928878     64.304212069
O       3.181384171     -0.911057116     -0.294843739
           3
  t=       133.75000    9    5
H     -25.887229829     -5.951315355    -59.874389221
H     -19.075537745     18.930553210     64.428772639
O       3.186893717     -0.912637133     -0.295353851
           3
  t=       134.00000    9    5
H     -25.937692944     -5.962863464    -59.990856107
H     -19.112516205     18.967178119     64.553335275
O       3.192403351     -0.914217171     -0.295863950
           3
  t=       134.25000    9    5
H     -25.988156936     -5.974411825    -60.107325254
H     -19.149495164     19.003803604     64.677899966
O       3.197913071     -0.915797229     -0.296374035
           3
  t=       134.50000    9    5
H     -26.038621802     -5.985960437    -60.223796654
H     -19.186474621     19.040429661     64.802466706
O       3.203422877     -0.917377307     -0.296884108
           3
  t=       134.75000    9    5
H     -26.089087539     -5.997509298    -60.340270297
H     -19.223454573     19.077056289     64.927035486
O       3.208932770     -0.918957406     -0.297394168
           3
  t=       135.00000    9    5
H     -26.139554144     -6.009058408    -60.456746176
H     -19.260435019     19.113683484     65.051606300
O       3.214442748     -0.920537524     -0.297904215
           3
  t=       135.25000    9    5
H     -26.190021612     -6.020607765    -60.573224281
H     -19.297415956     19.150311247     65.176179138
O       3.219952812     -0.922117663     -0.298414250
           3
  t=       135.50000    9    5
H     -26.240489942     -6.032157370    -60.689704604
H     -19.334397383     19.186939573     65.300753993
O       3.225462961     -0.923697822     -0.298924272
           3
  t=       135.75000    9    5
H     -26.290959129     -6.043707220    -60.806187138
H     -19.371379298     19.223568461     65.425330858
O       3.230973194     -0.925278001     -0.299434281
           3
  t=       136.00000    9    5
H     -26.341429170     -6.055257315    -60.922671872
H     -19.408361700     19.260197908     65.549909725
O       3.236483513     -0.926858199     -0.299944278
           3
  t=       136.25000    9    5
H     -26.391900062     -6.066807654    -61.039158799
H     -19.445344585     19.296827914     65.674490586
O       3.241993915     -0.928438418     -0.300454262
           3
  t=       136.50000    9    5
H     -26.442371801     -6.078358236    -61.155647911
H     -19.482327953     19.333458474     65.799073434
O       3.247504401     -0.930018656     -0.300964234
           3
  t=       136.75000    9    5
H     -26.492844385     -6.089909060    -61.272139199
H     -19.519311801     19.370089589     65.923658261
O       3.253014970     -0.931598913     -0.301474193
           3
  t=       137.00000    9    5
H     -26.543317810     -6.101460125    -61.388632655
H     -19.556296128     19.406721254     66.048245061
O       3.258525623     -0.933179191     -0.301984140
           3
  t=       137.25000    9    5
H     -26.593792073     -6.113011430    -61.505128270
H     -19.593280932     19.443353469     66.172833824
O       3.264036359     -0.934759487     -0.302494075
           3
  t=       137.50000    9    5
H     -26.644267171     -6.124562975    -61.621626038
H     -19.630266211     19.479986230     66.297424545
O       3.269547177     -0.936339803     -0.303003998
           3
  t=       137.75000    9    5
H     -26.694743101     -6.136114759    -61.738125948
H     -19.667251963     19.516619537     66.422017215
O       3.275058077     -0.937920139     -0.303513908
           3
  t=       138.00000    9    5
H     -26.745219859     -6.147666779    -61.854627994
H     -19.704238187     19.553253387     66.546611828
O       3.280569059     -0.939500493     -0.304023806
           3
  t=       138.25000    9    5
H     -26.795697443     -6.159219037    -61.971132168
H     -19.741224881     19.589887778     66.671208375
O       3.286080123     -0.941080867     -0.304533692
           3
  t=       138.50000    9    5
H     -26.846175848     -6.170771531    -62.087638461
H     -19.778212042     19.626522708     66.795806851
O       3.291591268     -0.942661260     -0.305043566
           3
  t=       138.75000    9    5
H     -26.896655073     -6.182324259    -62.204146865
H     -19.815199670     19.663158175     66.920407247
O       3.297102494     -0.944241672     -0.305553428
           3
  t=       139.00000    9    5
H     -26.947135114     -6.193877221    -62.320657374
H     -19.852187763     19.699794177     67.045009557
O       3.302613801     -0.945822103     -0.306063277
           3
  t=       139.25000    9    5
H     -26.997615968     -6.205430417    -62.437169978
H     -19.889176318     19.736430711     67.169613774
O       3.308125188     -0.947402553     -0.306573115
           3
  t=       139.50000    9    5
H     -27.048097632     -6.216983845    -62.553684670
H     -19.926165334     19.773067777     67.294219890
O       3.313636655     -0.948983021     -0.307082941
           3
  t=       139.75000    9    5
H     -27.098580104     -6.228537505    -62.670201442
H     -19.963154810     19.809705372     67.418827898
O       3.319148203     -0.950563508     -0.307592756
           3
  t=       140.00000    9    5
H     -27.149063379     -6.240091395    -62.786720287
H     -20.000144743     19.846343494     67.543437792
O       3.324659829     -0.952144014     -0.308102558
           3
  t=       140.25000    9    5
H     -27.199547455     -6.251645515    -62.903241196
H     -20.037135132     19.882982142     67.668049564
O       3.330171535     -0.953724539     -0.308612349
           3
  t=       140.50000    9    5
H     -27.250032329     -6.263199863    -63.019764163
H     -20.074125976     19.919621312     67.792663208
O       3.335683320     -0.955305082     -0.309122128
           3
  t=       140.75000    9    5
H     -27.300517998     -6.274754440    -63.136289180
H     -20.111117272     19.956261004     67.917278717
O       3.341195183     -0.956885644     -0.309631895
           3
  t=       141.00000    9    5
H     -27.351004459     -6.286309244    -63.252816238
H     -20.148109019     19.992901215     68.041896083
O       3.346707124     -0.958466224     -0.310141651
           3
  t=       141.25000    9    5
H     -27.401491710     -6.297864275    -63.369345332
H     -20.185101215     20.029541943     68.166515301
O       3.352219144     -0.960046822     -0.310651395
           3
  t=       141.50000    9    5
H     -27.451979747     -6.309419531    -63.485876452
H     -20.222093859     20.066183188     68.291136363
O       3.357731241     -0.961627439     -0.311161128
           3
  t=       141.75000    9    5
H     -27.502468567     -6.320975012    -63.602409592
H     -20.259086949     20.102824946     68.415759262
O       3.363243416     -0.963208074     -0.311670849
           3
  t=       142.00000    9    5
H     -27.552958168     -6.332530717    -63.718944745
H     -20.296080483     20.139467215     68.540383993
O       3.368755668     -0.964788727     -0.312180559
           3
  t=       142.25000    9    5
H     -27.603448546     -6.344086645    -63.835481903
H     -20.333074460     20.176109995     68.665010548
O       3.374267997     -0.966369398     -0.312690257
           3
  t=       142.50000    9    5
H     -27.653939700     -6.355642795    -63.952021058
H     -20.370068878     20.212753283     68.789638920
O       3.379780403     -0.967950087     -0.313199944
           3
  t=       142.75000    9    5
H     -27.704431625     -6.367199167    -64.068562204
H     -20.407063735     20.249397077     68.914269104
O       3.385292885     -0.969530794     -0.313709620
           3
  t=       143.00000    9    5
H     -27.754924320     -6.378755759    -64.185105333
H     -20.444059031     20.286041376     69.038901092
O       3.390805443     -0.971111519     -0.314219284
           3
  t=       143.25000    9    5
H     -27.805417781     -6.390312572    -64.301650438
H     -20.481054763     20.322686178     69.163534879
O       3.396318076     -0.972692262     -0.314728938
           3
  t=       143.50000    9    5
H     -27.855912005     -6.401869604    -64.418197513
H     -20.518050929     20.359331480     69.288170457
O       3.401830786     -0.974273022     -0.315238580
           3
  t=       143.75000    9    5
H     -27.906406991     -6.413426854    -64.534746549
H     -20.555047529     20.395977281     69.412807820
O       3.407343570     -0.975853801     -0.315748211
           3
  t=       144.00000    9    5
H     -27.956902734     -6.424984321    -64.651297540
H     -20.592044560     20.432623580     69.537446962
O       3.412856430     -0.977434596     -0.316257830
           3
  t=       144.25000    9    5
H     -28.007399233     -6.436542006    -64.767850479
H     -20.629042022     20.469270374     69.662087876
O       3.418369364     -0.979015410     -0.316767439
           3
  t=       144.50000    9    5
H     -28.057896485     -6.448099906    -64.884405358
H     -20.666039912     20.505917661     69.786730557
O       3.423882372     -0.980596241     -0.317277037
           3
  t=       144.75000    9    5
H     -28.108394486     -6.459658022    -65.000962171
H     -20.703038229     20.542565441     69.911374997
O       3.429395455     -0.982177089     -0.317786624
           3
  t=       145.00000    9    5
H     -28.158893235     -6.471216352    -65.117520912
H     -20.740036971     20.579213711     70.036021191
O       3.434908612     -0.983757954     -0.318296200
           3
  t=       145.25000    9    5
H     -28.209392728     -6.482774896    -65.234081572
H     -20.777036138     20.615862469     70.160669132
O       3.440421842     -0.985338837     -0.318805765
           3
  t=       145.50000    9    5
H     -28.259892963     -6.494333653    -65.350644145
H     -20.814035727     20.652511714     70.285318815
O       3.445935145     -0.986919738     -0.319315319
           3
  t=       145.75000    9    5
H     -28.310393938     -6.505892622    -65.467208625
H     -20.851035736     20.689161444     70.409970232
O       3.451448522     -0.988500655     -0.319824862
           3
  t=       146.00000    9    5
H     -28.360895649     -6.517451802    -65.583775005
H     -20.888036166     20.725811658     70.534623378
O       3.456961972     -0.990081590     -0.320334395
           3
  t=       146.25000    9    5
H     -28.411398094     -6.529011193    -65.700343277
H     -20.925037013     20.762462353     70.659278247
O       3.462475494     -0.991662541     -0.320843917
           3
  t=       146.50000    9    5
H     -28.461901270     -6.540570795    -65.816913436
H     -20.962038277     20.799113527     70.783934832
O       3.467989088     -0.993243510     -0.321353428
           3
  t=       146.75000    9    5
H     -28.512405175     -6.552130605    -65.933485474
H     -20.999039955     20.835765180     70.908593128
O       3.473502755     -0.994824495     -0.321862929
           3
  t=       147.00000    9    5
H     -28.562909807     -6.563690624    -66.050059385
H     -21.036042048     20.872417310     71.033253129
O       3.479016493     -0.996405498     -0.322372419
           3
  t=       147.25000    9    5
H     -28.613415161     -6.575250851    -66.166635163
H     -21.073044552     20.909069914     71.157914829
O       3.484530303     -0.997986517     -0.322881898
           3
  t=       147.50000    9    5
H     -28.663921238     -6.586811284    -66.283212800
H     -21.110047467     20.945722991     71.282578221
O       3.490044184     -0.999567553     -0.323391367
           3
  t=       147.75000    9    5
H     -28.714428032     -6.598371924    -66.399792291
H     -21.147050791     20.982376540     71.407243300
O       3.495558136     -1.001148606     -0.323900825
           3
  t=       148.00000    9    5
H     -28.764935543     -6.609932770    -66.516373628
H     -21.184054523     21.019030559     71.531910060
O       3.501072159     -1.002729675     -0.324410273
           3
  t=       148.25000    9    5
H     -28.815443767     -6.621493821    -66.632956806
H     -21.221058661     21.055685046     71.656578495
O       3.506586253     -1.004310761     -0.324919711
           3
  t=       148.50000    9    5
H     -28.865952702     -6.633055075    -66.749541818
H     -21.258063205     21.092340000     71.781248599
O       3.512100417     -1.005891864     -0.325429138
           3
  t=       148.75000    9    5
H     -28.916462346     -6.644616533    -66.866128657
H     -21.295068151     21.128995418     71.905920367
O       3.517614651     -1.007472983     -0.325938555
           3
  t=       149.00000    9    5
H     -28.966972695     -6.656178194    -66.982717317
H     -21.332073500     21.165651300     72.030593792
O       3.523128955     -1.009054118     -0.326447961
           3
  t=       149.25000    9    5
H     -29.017483749     -6.667740057    -67.099307792
H     -21.369079250     21.202307644     72.155268870
O       3.528643328     -1.010635270     -0.326957358
           3
  t=       149.50000    9    5
H     -29.067995503     -6.679302122    -67.215900076
H     -21.406085399     21.238964448     72.279945594
O       3.534157771     -1.012216438     -0.327466744
           3
  t=       149.75000    9    5
H     -29.118507956     -6.690864387    -67.332494162
H     -21.443091945     21.275621711     72.404623958
O       3.539672283     -1.013797622     -0.327976119
           3
  t=       150.00000    9    5
H     -29.169021106     -6.702426852    -67.449090044
H     -21.480098889     21.312279430     72.529303958
O       3.545186864     -1.015378823     -0.328485485
           3
  t=       150.25000    9    5
H     -29.219534949     -6.713989516    -67.565687717
H     -21.517106227     21.348937605     72.653985586
O       3.550701513     -1.016960040     -0.328994841
           3
  t=       150.50000    9    5
H     -29.270049484     -6.725552379    -67.682287172
H     -21.554113960     21.385596234     72.778668839
O       3.556216231     -1.018541272     -0.329504186
           3
  t=       150.75000    9    5
H     -29.320564708     -6.737115440    -67.798888406
H     -21.591122085     21.422255315     72.903353710
O       3.561731017     -1.020122521     -0.330013522
           3
  t=       151.00000    9    5
H     -29.371080618     -6.748678698    -67.915491411
H     -21.628130601     21.458914847     73.028040194
O       3.567245870     -1.021703786     -0.330522847
           3
  t=       151.25000    9    5
H     -29.421597213     -6.760242153    -68.032096181
H     -21.665139507     21.495574828     73.152728284
O       3.572760792     -1.023285067     -0.331032163
           3
  t=       151.50000    9    5
H     -29.472114490     -6.771805804    -68.148702711
H     -21.702148801     21.532235257     73.277417977
O       3.578275781     -1.024866363     -0.331541468
           3
  t=       151.75000    9    5
H     -29.522632446     -6.783369650    -68.265310994
H     -21.739158482     21.568896133     73.402109266
O       3.583790837     -1.026447676     -0.332050764
           3
  t=       152.00000    9    5
H     -29.573151080     -6.794933690    -68.381921025
H     -21.776168550     21.605557452     73.526802146
O       3.589305960     -1.028029004     -0.332560050
           3
  t=       152.25000    9    5
H     -29.623670389     -6.806497924    -68.498532797
H     -21.813179002     21.642219215     73.651496611
O       3.594821150     -1.029610348     -0.333069326
           3
  t=       152.50000    9    5
H     -29.674190371     -6.818062352    -68.615146305
H     -21.850189837     21.678881420     73.776192657
O       3.600336406     -1.031191707     -0.333578592
           3
  t=       152.75000    9    5
H     -29.724711023     -6.829626972    -68.731761543
H     -21.887201054     21.715544065     73.900890277
O       3.605851729     -1.032773082     -0.334087848
           3
  t=       153.00000    9    5
H     -29.775232343     -6.841191785    -68.848378504
H     -21.924212651     21.752207148     74.025589467
O       3.611367118     -1.034354473     -0.334597095
           3
  t=       153.25000    9    5
H     -29.825754330     -6.852756788    -68.964997183
H     -21.961224628     21.788870669     74.150290221
O       3.616882572     -1.035935879     -0.335106332
           3
  t=       153.50000    9    5
H     -29.876276979     -6.864321982    -69.081617575
H     -21.998236983     21.825534626     74.274992534
O       3.622398093     -1.037517300     -0.335615559
           3
  t=       153.75000    9    5
H     -29.926800291     -6.875887367    -69.198239673
H     -22.035249715     21.862199016     74.399696401
O       3.627913678     -1.039098737     -0.336124777
           3
  t=       154.00000    9    5
H     -29.977324261     -6.887452940    -69.314863472
H     -22.072262822     21.898863840     74.524401817
O       3.633429329     -1.040680190     -0.336633985
           3
  t=       154.25000    9    5
H     -30.027848888     -6.899018703    -69.431488966
H     -22.109276304     21.935529095     74.649108775
O       3.638945045     -1.042261657     -0.337143183
           3
  t=       154.50000    9    5
H     -30.078374170     -6.910584654    -69.548116150
H     -22.146290158     21.972194780     74.773817273
O       3.644460826     -1.043843140     -0.337652373
           3
  t=       154.75000    9    5
H     -30.128900105     -6.922150792    -69.664745017
H     -22.183304384     22.008860894     74.898527303
O       3.649976671     -1.045424638     -0.338161552
           3
  t=       155.00000    9    5
H     -30.179426690     -6.933717117    -69.781375562
H     -22.220318981     22.045527434     75.023238861
O       3.655492581     -1.047006151     -0.338670722
           3
  t=       155.25000    9    5
H     -30.229953923     -6.945283628    -69.898007780
H     -22.257333947     22.082194400     75.147951943
O       3.661008554     -1.048587680     -0.339179883
           3
  t=       155.50000    9    5
H     -30.280481802     -6.956850325    -70.014641664
H     -22.294349281     22.118861791     75.272666542
O       3.666524592     -1.050169223     -0.339689034
           3
  t=       155.75000    9    5
H     -30.331010325     -6.968417207    -70.131277210
H     -22.331364982     22.155529604     75.397382654
O       3.672040693     -1.051750781     -0.340198176
           3
  t=       156.00000    9    5
H     -30.381539490     -6.979984274    -70.247914412
H     -22.368381049     22.192197839     75.522100274
O       3.677556858     -1.053332354     -0.340707309
           3
  t=       156.25000    9    5
H     -30.432069294     -6.991551524    -70.364553265
H     -22.405397480     22.228866494     75.646819397
O       3.683073085     -1.054913942     -0.341216432
           3
  t=       156.50000    9    5
H     -30.482599735     -7.003118957    -70.481193762
H     -22.442414274     22.265535568     75.771540018
O       3.688589376     -1.056495545     -0.341725546
           3
  t=       156.75000    9    5
H     -30.533130812     -7.014686574    -70.597835899
H     -22.479431430     22.302205059     75.896262132
O       3.694105730     -1.058077163     -0.342234651
           3
  t=       157.00000    9    5
H     -30.583662522     -7.026254372    -70.714479670
H     -22.516448947     22.338874965     76.020985735
O       3.699622147     -1.059658795     -0.342743747
           3
  t=       157.25000    9    5
H     -30.634194864     -7.037822351    -70.831125070
H     -22.553466823     22.375545287     76.145710820
O       3.705138626     -1.061240442     -0.343252833
           3
  t=       157.50000    9    5
H     -30.684727834     -7.049390512    -70.947772093
H     -22.590485058     22.412216021     76.270437384
O       3.710655167     -1.062822104     -0.343761910
           3
  t=       157.75000    9    5
H     -30.735261431     -7.060958852    -71.064420734
H     -22.627503651     22.448887168     76.395165422
O       3.716171770     -1.064403780     -0.344270979
           3
  t=       158.00000    9    5
H     -30.785795654     -7.072527373    -71.181070988
H     -22.664522599     22.485558725     76.519894929
O       3.721688435     -1.065985471     -0.344780038
           3
  t=       158.25000    9    5
H     -30.836330499     -7.084096072    -71.297722850
H     -22.701541902     22.522230691     76.644625899
O       3.727205161     -1.067567177     -0.345289088
           3
  t=       158.50000    9    5
H     -30.886865965     -7.095664950    -71.414376314
H     -22.738561559     22.558903065     76.769358329
O       3.732721949     -1.069148897     -0.345798129
           3
  t=       158.75000    9    5
H     -30.937402050     -7.107234006    -71.531031375
H     -22.775581569     22.595575846     76.894092213
O       3.738238798     -1.070730631     -0.346307161
           3
  t=       159.00000    9    5
H     -30.987938751     -7.118803239    -71.647688028
H     -22.812601930     22.632249032     77.018827548
O       3.743755708     -1.072312379     -0.346816184
           3
  t=       159.25000    9    5
H     -31.038476068     -7.130372648    -71.764346267
H     -22.849622641     22.668922621     77.143564327
O       3.749272679     -1.073894142     -0.347325199
           3
  t=       159.50000    9    5
H     -31.089013997     -7.141942234    -71.881006088
H     -22.886643702     22.705596614     77.268302547
O       3.754789711     -1.075475920     -0.347834204
           3
  t=       159.75000    9    5
H     -31.139552537     -7.153511996    -71.997667486
H     -22.923665110     22.742271007     77.393042203
O       3.760306803     -1.077057711     -0.348343200
           3
  t=       160.00000    9    5
H     -31.190091686     -7.165081933    -72.114330455
H     -22.960686866     22.778945801     77.517783290
O       3.765823955     -1.078639517     -0.348852188
           3
  t=       160.25000    9    5
H     -31.240631441     -7.176652044    -72.230994990
H     -22.997708967     22.815620993     77.642525803
O       3.771341167     -1.080221336     -0.349361167
           3
  t=       160.50000    9    5
H     -31.291171802     -7.188222329    -72.347661086
H     -23.034731413     22.852296583     77.767269739
O       3.776858439     -1.081803170     -0.349870137
           3
  t=       160.75000    9    5
H     -31.341712765     -7.199792788    -72.464328739
H     -23.071754203     22.888972569     77.892015092
O       3.782375771     -1.083385018     -0.350379099
           3
  t=       161.00000    9    5
H     -31.392254329     -7.211363419    -72.580997943
H     -23.108777335     22.925648950     78.016761858
O       3.787893162     -1.084966880     -0.350888051
           3
  t=       161.25000    9    5
H     -31.442796492     -7.222934222    -72.697668693
H     -23.145800809     22.962325724     78.141510033
O       3.793410613     -1.086548755     -0.351396995
           3
  t=       161.50000    9    5
H     -31.493339253     -7.234505198    -72.814340984
H     -23.182824622     22.999002891     78.266259611
O       3.798928122     -1.088130645     -0.351905930
           3
  t=       161.75000    9    5
H     -31.543882608     -7.246076344    -72.931014812
H     -23.219848775     23.035680449     78.391010589
O       3.804445690     -1.089712549     -0.352414857
           3
  t=       162.00000    9    5
H     -31.594426557     -7.257647661    -73.047690171
H     -23.256873266     23.072358397     78.515762963
O       3.809963317     -1.091294466     -0.352923775
           3
  t=       162.25000    9    5
H     -31.644971097     -7.269219149    -73.164367057
H     -23.293898095     23.109036733     78.640516726
O       3.815481003     -1.092876397     -0.353432685
           3
  t=       162.50000    9    5
H     -31.695516227     -7.280790805    -73.281045464
H     -23.330923259     23.145715457     78.765271876
O       3.820998747     -1.094458342     -0.353941586
           3
  t=       162.75000    9    5
H     -31.746061945     -7.292362631    -73.397725389
H     -23.367948758     23.182394567     78.890028408
O       3.826516549     -1.096040300     -0.354450478
           3
  t=       163.00000    9    5
H     -31.796608248     -7.303934625    -73.514406825
H     -23.404974591     23.219074062     79.014786318
O       3.832034409     -1.097622273     -0.354959362
           3
  t=       163.25000    9    5
H     -31.847155135     -7.315506787    -73.631089769
H     -23.442000756     23.255753941     79.139545600
O       3.837552326     -1.099204258     -0.355468238
           3
  t=       163.50000    9    5
H     -31.897702604     -7.327079117    -73.747774216
H     -23.479027254     23.292434203     79.264306251
O       3.843070302     -1.100786258     -0.355977105
           3
  t=       163.75000    9    5
H     -31.948250653     -7.338651614    -73.864460160
H     -23.516054082     23.329114845     79.389068267
O       3.848588334     -1.102368271     -0.356485964
           3
  t=       164.00000    9    5
H     -31.998799280     -7.350224276    -73.981147597
H     -23.553081240     23.365795868     79.513831643
O       3.854106424     -1.103950297     -0.356994814
           3
  t=       164.25000    9    5
H     -32.049348484     -7.361797105    -74.097836523
H     -23.590108726     23.402477270     79.638596375
O       3.859624571     -1.105532337     -0.357503656
           3
  t=       164.50000    9    5
H     -32.099898263     -7.373370099    -74.214526933
H     -23.627136540     23.439159049     79.763362459
O       3.865142775     -1.107114390     -0.358012490
           3
  t=       164.75000    9    5
H     -32.150448615     -7.384943258    -74.331218821
H     -23.664164680     23.475841206     79.888129890
O       3.870661035     -1.108696456     -0.358521315
           3
  t=       165.00000    9    5
H     -32.200999538     -7.396516581    -74.447912184
H     -23.701193146     23.512523737     80.012898665
O       3.876179352     -1.110278536     -0.359030132
           3
  t=       165.25000    9    5
H     -32.251551030     -7.408090068    -74.564607017
H     -23.738221937     23.549206643     80.137668779
O       3.881697725     -1.111860629     -0.359538941
           3
  t=       165.50000    9    5
H     -32.302103089     -7.419663718    -74.681303315
H     -23.775251051     23.585889922     80.262440228
O       3.887216155     -1.113442735     -0.360047742
           3
  t=       165.75000    9    5
H     -32.352655715     -7.431237531    -74.798001074
H     -23.812280488     23.622573572     80.387213007
O       3.892734640     -1.115024855     -0.360556535
           3
  t=       166.00000    9    5
H     -32.403208904     -7.442811506    -74.914700289
H     -23.849310246     23.659257594     80.511987114
O       3.898253181     -1.116606987     -0.361065319
           3
  t=       166.25000    9    5
H     -32.453762655     -7.454385643    -75.031400955
H     -23.886340324     23.695941985     80.636762542
O       3.903771778     -1.118189133     -0.361574095
           3
  t=       166.50000    9    5
H     -32.504316967     -7.465959941    -75.148103069
H     -23.923370722     23.732626745     80.761539290
O       3.909290430     -1.119771292     -0.362082863
           3
  t=       166.75000    9    5
H     -32.554871838     -7.477534400    -75.264806625
H     -23.960401439     23.769311872     80.886317352
O       3.914809137     -1.121353463     -0.362591623
           3
  t=       167.00000    9    5
H     -32.605427266     -7.489109020    -75.381511620
H     -23.997432473     23.805997365     81.011096724
O       3.920327900     -1.122935648     -0.363100375
           3
  t=       167.25000    9    5
H     -32.655983249     -7.500683799    -75.498218048
H     -24.034463823     23.842683223     81.135877403
O       3.925846718     -1.124517846     -0.363609119
           3
  t=       167.50000    9    5
H     -32.706539785     -7.512258737    -75.614925905
H     -24.071495490     23.879369445     81.260659384
O       3.931365590     -1.126100056     -0.364117855
           3
  t=       167.75000    9    5
H     -32.757096874     -7.523833834    -75.731635188
H     -24.108527470     23.916056030     81.385442663
O       3.936884517     -1.127682280     -0.364626583
           3
  t=       168.00000    9    5
H     -32.807654512     -7.535409090    -75.848345891
H     -24.145559765     23.952742977     81.510227237
O       3.942403498     -1.129264516     -0.365135304
           3
  t=       168.25000    9    5
H     -32.858212699     -7.546984503    -75.965058010
H     -24.182592372     23.989430285     81.635013101
O       3.947922533     -1.130846765     -0.365644016
           3
  t=       168.50000    9    5
H     -32.908771433     -7.558560074    -76.081771541
H     -24.219625291     24.026117951     81.759800252
O       3.953441623     -1.132429026     -0.366152720
           3
  t=       168.75000    9    5
H     -32.959330712     -7.570135801    -76.198486479
H     -24.256658520     24.062805977     81.884588685
O       3.958960767     -1.134011301     -0.366661416
           3
  t=       169.00000    9    5
H     -33.009890534     -7.581711685    -76.315202821
H     -24.293692059     24.099494359     82.009378397
O       3.964479964     -1.135593588     -0.367170105
           3
  t=       169.25000    9    5
H     -33.060450898     -7.593287725    -76.431920561
H     -24.330725908     24.136183098     82.134169384
O       3.969999215     -1.137175888     -0.367678786
           3
  t=       169.50000    9    5
H     -33.111011802     -7.604863920    -76.548639697
H     -24.367760064     24.172872192     82.258961642
O       3.975518519     -1.138758200     -0.368187459
           3
  t=       169.75000    9    5
H     -33.161573244     -7.616440270    -76.665360222
H     -24.404794527     24.209561640     82.383755167
O       3.981037877     -1.140340525     -0.368696124
           3
  t=       170.00000    9    5
H     -33.212135223     -7.628016775    -76.782082134
H     -24.441829296     24.246251441     82.508549955
O       3.986557287     -1.141922862     -0.369204781
           3
  t=       170.25000    9    5
H     -33.262697738     -7.639593434    -76.898805428
H     -24.478864370     24.282941594     82.633346002
O       3.992076751     -1.143505212     -0.369713431
           3
  t=       170.50000    9    5
H     -33.313260786     -7.651170246    -77.015530100
H     -24.515899748     24.319632098     82.758143305
O       3.997596267     -1.145087574     -0.370222073
           3
  t=       170.75000    9    5
H     -33.363824365     -7.662747211    -77.132256145
H     -24.552935430     24.356322952     82.882941860
O       4.003115837     -1.146669949     -0.370730707
           3
  t=       171.00000    9    5
H     -33.414388475     -7.674324330    -77.248983560
H     -24.589971414     24.393014155     83.007741663
O       4.008635458     -1.148252336     -0.371239334
           3
  t=       171.25000    9    5
H     -33.464953114     -7.685901600    -77.365712340
H     -24.627007700     24.429705705     83.132542711
O       4.014155132     -1.149834735     -0.371747953
           3
  t=       171.50000    9    5
H     -33.515518280     -7.697479022    -77.482442482
H     -24.664044286     24.466397602     83.257344999
O       4.019674858     -1.151417147     -0.372256564
           3
  t=       171.75000    9    5
H     -33.566083971     -7.709056595    -77.599173980
H     -24.701081171     24.503089844     83.382148523
O       4.025194636     -1.152999571     -0.372765168
           3
  t=       172.00000    9    5
H     -33.616650187     -7.720634319    -77.715906832
H     -24.738118356     24.539782431     83.506953282
O       4.030714466     -1.154582007     -0.373273764
           3
  t=       172.25000    9    5
H     -33.667216924     -7.732212193    -77.832641033
H     -24.775155838     24.576475362     83.631759269
O       4.036234347     -1.156164455     -0.373782353
           3
  t=       172.50000    9    5
H     -33.717784183     -7.743790218    -77.949376579
H     -24.812193617     24.613168636     83.756566483
O       4.041754280     -1.157746915     -0.374290934
           3
  t=       172.75000    9    5
H     -33.768351960     -7.755368392    -78.066113466
H     -24.849231692     24.649862250     83.881374918
O       4.047274264     -1.159329388     -0.374799508
           3
  t=       173.00000    9    5
H     -33.818920256     -7.766946714    -78.182851690
H     -24.886270063     24.686556206     84.006184573
O       4.052794300     -1.160911872     -0.375308074
           3
  t=       173.25000    9    5
H     -33.869489067     -7.778525186    -78.299591247
H     -24.923308727     24.723250501     84.130995442
O       4.058314387     -1.162494369     -0.375816633
           3
  t=       173.50000    9    5
H     -33.920058393     -7.790103806    -78.416332133
H     -24.960347685     24.759945134     84.255807523
O       4.063834524     -1.164076877     -0.376325185
           3
  t=       173.75000    9    5
H     -33.970628232     -7.801682573    -78.533074344
H     -24.997386936     24.796640105     84.380620811
O       4.069354713     -1.165659398     -0.376833729
           3
  t=       174.00000    9    5
H     -34.021198583     -7.813261488    -78.649817877
H     -25.034426478     24.833335412     84.505435304
O       4.074874951     -1.167241930     -0.377342265
           3
  t=       174.25000    9    5
H     -34.071769443     -7.824840549    -78.766562727
H     -25.071466311     24.870031055     84.630250997
O       4.080395241     -1.168824475     -0.377850795
           3
  t=       174.50000    9    5
H     -34.122340812     -7.836419757    -78.883308890
H     -25.108506434     24.906727032     84.755067888
O       4.085915581     -1.170407031     -0.378359317
           3
  t=       174.75000    9    5
H     -34.172912688     -7.847999111    -79.000056362
H     -25.145546847     24.943423343     84.879885972
O       4.091435970     -1.171989599     -0.378867831
           3
  t=       175.00000    9    5
H     -34.223485069     -7.859578610    -79.116805140
H     -25.182587547     24.980119987     85.004705246
O       4.096956410     -1.173572179     -0.379376339
           3
  t=       175.25000    9    5
H     -34.274057955     -7.871158255    -79.233555221
H     -25.219628535     25.016816962     85.129525707
O       4.102476900     -1.175154770     -0.379884839
           3
  t=       175.50000    9    5
H     -34.324631343     -7.882738044    -79.350306599
H     -25.256669809     25.053514267     85.254347351
O       4.107997439     -1.176737373     -0.380393332
           3
  t=       175.75000    9    5
H     -34.375205231     -7.894317978    -79.467059271
H     -25.293711369     25.090211903     85.379170175
O       4.113518028     -1.178319988     -0.380901818
           3
  t=       176.00000    9    5
H     -34.425779620     -7.905898055    -79.583813233
H     -25.330753214     25.126909867     85.503994175
O       4.119038667     -1.179902615     -0.381410296
           3
  t=       176.25000    9    5
H     -34.476354506     -7.917478276    -79.700568483
H     -25.367795344     25.163608158     85.628819347
O       4.124559355     -1.181485253     -0.381918767
           3
  t=       176.50000    9    5
H     -34.526929889     -7.929058640    -79.817325015
H     -25.404837756     25.200306777     85.753645690
O       4.130080091     -1.183067903     -0.382427232
           3
  t=       176.75000    9    5
H     -34.577505768     -7.940639147    -79.934082826
H     -25.441880450     25.237005721     85.878473198
O       4.135600877     -1.184650564     -0.382935689
           3
  t=       177.00000    9    5
H     -34.628082140     -7.952219796    -80.050841912
H     -25.478923427     25.273704990     86.003301869
O       4.141121712     -1.186233237     -0.383444139
           3
  t=       177.25000    9    5
H     -34.678659004     -7.963800586    -80.167602270
H     -25.515966684     25.310404583     86.128131699
O       4.146642595     -1.187815921     -0.383952582
           3
  t=       177.50000    9    5
H     -34.729236359     -7.975381518    -80.284363897
H     -25.553010221     25.347104499     86.252962685
O       4.152163527     -1.189398617     -0.384461017
           3
  t=       177.75000    9    5
H     -34.779814203     -7.986962591    -80.401126787
H     -25.590054037     25.383804737     86.377794823
O       4.157684508     -1.190981324     -0.384969446
           3
  t=       178.00000    9    5
H     -34.830392536     -7.998543804    -80.517890938
H     -25.627098131     25.420505297     86.502628111
O       4.163205536     -1.192564043     -0.385477868
           3
  t=       178.25000    9    5
H     -34.880971355     -8.010125158    -80.634656346
H     -25.664142503     25.457206176     86.627462545
O       4.168726613     -1.194146773     -0.385986283
           3
  t=       178.50000    9    5
H     -34.931550659     -8.021706651    -80.751423008
H     -25.701187151     25.493907375     86.752298121
O       4.174247738     -1.195729514     -0.386494691
           3
  t=       178.75000    9    5
H     -34.982130446     -8.033288284    -80.868190919
H     -25.738232076     25.530608892     86.877134837
O       4.179768911     -1.197312266     -0.387003091
           3
  t=       179.00000    9    5
H     -35.032710717     -8.044870055    -80.984960076
H     -25.775277275     25.567310726     87.001972688
O       4.185290131     -1.198895030     -0.387511485
           3
  t=       179.25000    9    5
H     -35.083291468     -8.056451965    -81.101730476
H     -25.812322749     25.604012877     87.126811673
O       4.190811399     -1.200477805     -0.388019872
           3
  t=       179.50000    9    5
H     -35.133872698     -8.068034014    -81.218502115
H     -25.849368496     25.640715344     87.251651787
O       4.196332715     -1.202060591     -0.388528252
           3
  t=       179.75000    9    5
H     -35.184454407     -8.079616200    -81.335274989
H     -25.886414517     25.677418125     87.376493028
O       4.201854077     -1.203643388     -0.389036626
           3
  t=       180.00000    9    5
H     -35.235036593     -8.091198523    -81.452049096
H     -25.923460809     25.714121220     87.501335391
O       4.207375487     -1.205226197     -0.389544992
           3
  t=       180.25000    9    5
H     -35.285619254     -8.102780984    -81.568824430
H     -25.960507372     25.750824628     87.626178875
O       4.212896944     -1.206809016     -0.390053352
           3
  t=       180.50000    9    5
H     -35.336202389     -8.114363580    -81.685600990
H     -25.997554206     25.787528349     87.751023475
O       4.218418448     -1.208391846     -0.390561704
           3
  t=       180.75000    9    5
H     -35.386785997     -8.125946314    -81.802378771
H     -26.034601309     25.824232380     87.875869189
O       4.223939999     -1.209974688     -0.391070050
           3
  t=       181.00000    9    5
H     -35.437370076     -8.137529183    -81.919157769
H     -26.071648681     25.860936721     88.000716013
O       4.229461596     -1.211557541     -0.391578389
           3
  t=       181.25000    9    5
H     -35.487954626     -8.149112187    -82.035937983
H     -26.108696322     25.897641372     88.125563945
O       4.234983240     -1.213140404     -0.392086722
           3
  t=       181.50000    9    5
H     -35.538539643     -8.160695326    -82.152719407
H     -26.145744229     25.934346332     88.250412980
O       4.240504930     -1.214723278     -0.392595047
           3
  t=       181.75000    9    5
H     -35.589125129     -8.172278600    -82.269502039
H     -26.182792404     25.971051599     88.375263117
O       4.246026667     -1.216306164     -0.393103366
           3
  t=       182.00000    9    5
H     -35.639711080     -8.183862009    -82.386285874
H     -26.219840844     26.007757173     88.500114352
O       4.251548449     -1.217889060     -0.393611679
           3
  t=       182.25000    9    5
H     -35.690297496     -8.195445551    -82.503070911
H     -26.256889549     26.044463052     88.624966681
O       4.257070278     -1.219471967     -0.394119984
           3
  t=       182.50000    9    5
H     -35.740884376     -8.207029227    -82.619857145
H     -26.293938518     26.081169237     88.749820103
O       4.262592152     -1.221054885     -0.394628283
           3
  t=       182.75000    9    5
H     -35.791471717     -8.218613036    -82.736644573
H     -26.330987751     26.117875726     88.874674612
O       4.268114072     -1.222637813     -0.395136576
           3
  t=       183.00000    9    5
H     -35.842059519     -8.230196977    -82.853433191
H     -26.368037247     26.154582518     88.999530208
O       4.273636038     -1.224220753     -0.395644861
           3
  t=       183.25000    9    5
H     -35.892647781     -8.241781051    -82.970222997
H     -26.405087006     26.191289613     89.124386886
O       4.279158049     -1.225803703     -0.396153140
           3
  t=       183.50000    9    5
H     -35.943236501     -8.253365257    -83.087013987
H     -26.442137025     26.227997009     89.249244644
O       4.284680106     -1.227386664     -0.396661413
           3
  t=       183.75000    9    5
H     -35.993825678     -8.264949595    -83.203806157
H     -26.479187305     26.264704706     89.374103478
O       4.290202207     -1.228969635     -0.397169679
           3
  t=       184.00000    9    5
H     -36.044415310     -8.276534064    -83.320599504
H     -26.516237845     26.301412704     89.498963386
O       4.295724354     -1.230552617     -0.397677938
           3
  t=       184.25000    9    5
H     -36.095005397     -8.288118664    -83.437394026
H     -26.553288644     26.338121000     89.623824364
O       4.301246546     -1.232135610     -0.398186191
           3
  t=       184.50000    9    5
H     -36.145595936     -8.299703395    -83.554189718
H     -26.590339702     26.374829594     89.748686410
O       4.306768783     -1.233718613     -0.398694438
           3
  t=       184.75000    9    5
H     -36.196186928     -8.311288255    -83.670986578
H     -26.627391017     26.411538486     89.873549521
O       4.312291064     -1.235301627     -0.399202678
           3
  t=       185.00000    9    5
H     -36.246778370     -8.322873246    -83.787784602
H     -26.664442590     26.448247675     89.998413693
O       4.317813390     -1.236884651     -0.399710911
           3
  t=       185.25000    9    5
H     -36.297370261     -8.334458366    -83.904583787
H     -26.701494419     26.484957159     90.123278924
O       4.323335760     -1.238467686     -0.400219138
           3
  t=       185.50000    9    5
H     -36.347962600     -8.346043615    -84.021384129
H     -26.738546503     26.521666938     90.248145210
O       4.328858175     -1.240050731     -0.400727359
           3
  t=       185.75000    9    5
H     -36.398555386     -8.357628993    -84.138185627
H     -26.775598842     26.558377012     90.373012550
O       4.334380634     -1.241633786     -0.401235573
           3
  t=       186.00000    9    5
H     -36.449148618     -8.369214499    -84.254988275
H     -26.812651435     26.595087379     90.497880939
O       4.339903137     -1.243216852     -0.401743781
           3
  t=       186.25000    9    5
H     -36.499742294     -8.380800134    -84.371792072
H     -26.849704282     26.631798038     90.622750376
O       4.345425683     -1.244799929     -0.402251982
           3
  t=       186.50000    9    5
H     -36.550336412     -8.392385896    -84.488597014
H     -26.886757382     26.668508989     90.747620857
O       4.350948274     -1.246383016     -0.402760177
           3
  t=       186.75000    9    5
H     -36.600930973     -8.403971785    -84.605403097
H     -26.923810734     26.705220232     90.872492379
O       4.356470909     -1.247966113     -0.403268366
           3
  t=       187.00000    9    5
H     -36.651525974     -8.415557802    -84.722210319
H     -26.960864337     26.741931764     90.997364939
O       4.361993587     -1.249549220     -0.403776548
           3
  t=       187.25000    9    5
H     -36.702121415     -8.427143945    -84.839018677
H     -26.997918190     26.778643585     91.122238536
O       4.367516308     -1.251132337     -0.404284725
           3
  t=       187.50000    9    5
H     -36.752717294     -8.438730214    -84.955828167
H     -27.034972294     26.815355696     91.247113165
O       4.373039073     -1.252715465     -0.404792895
           3
  t=       187.75000    9    5
H     -36.803313609     -8.450316609    -85.072638787
H     -27.072026647     26.852068093     91.371988823
O       4.378561881     -1.254298603     -0.405301058
           3
  t=       188.00000    9    5
H     -36.853910361     -8.461903130    -85.189450532
H     -27.109081249     26.888780778     91.496865509
O       4.384084733     -1.255881751     -0.405809215
           3
  t=       188.25000    9    5
H     -36.904507547     -8.473489777    -85.306263401
H     -27.146136099     26.925493749     91.621743220
O       4.389607627     -1.257464909     -0.406317367
           3
  t=       188.50000    9    5
H     -36.955105166     -8.485076548    -85.423077390
H     -27.183191196     26.962207006     91.746621952
O       4.395130564     -1.259048078     -0.406825512
           3
  t=       188.75000    9    5
H     -37.005703218     -8.496663444    -85.539892496
H     -27.220246539     26.998920547     91.871501703
O       4.400653544     -1.260631256     -0.407333650
           3
  t=       189.00000    9    5
H     -37.056301700     -8.508250464    -85.656708716
H     -27.257302129     27.035634372     91.996382469
O       4.406176567     -1.262214445     -0.407841783
           3
  t=       189.25000    9    5
H     -37.106900613     -8.519837608    -85.773526047
H     -27.294357963     27.072348480     92.121264249
O       4.411699632     -1.263797643     -0.408349909
           3
  t=       189.50000    9    5
H     -37.157499954     -8.531424875    -85.890344486
H     -27.331414043     27.109062871     92.246147040
O       4.417222740     -1.265380852     -0.408858030
           3
  t=       189.75000    9    5
H     -37.208099723     -8.543012266    -86.007164030
H     -27.368470366     27.145777543     92.371030838
O       4.422745889     -1.266964070     -0.409366144
           3
  t=       190.00000    9    5
H     -37.258699918     -8.554599780    -86.123984676
H     -27.405526933     27.182492496     92.495915642
O       4.428269081     -1.268547299     -0.409874252
           3
  t=       190.25000    9    5
H     -37.309300538     -8.566187416    -86.240806420
H     -27.442583742     27.219207728     92.620801447
O       4.433792316     -1.270130537     -0.410382354
           3
  t=       190.50000    9    5
H     -37.359901582     -8.577775175    -86.357629261
H     -27.479640793     27.255923241     92.745688253
O       4.439315592     -1.271713786     -0.410890450
           3
  t=       190.75000    9    5
H     -37.410503049     -8.589363055    -86.474453195
H     -27.516698085     27.292639031     92.870576055
O       4.444838910     -1.273297044     -0.411398539
           3
  t=       191.00000    9    5
H     -37.461104938     -8.600951057    -86.591278219
H     -27.553755618     27.329355100     92.995464852
O       4.450362269     -1.274880312     -0.411906623
           3
  t=       191.25000    9    5
H     -37.511707247     -8.612539181    -86.708104329
H     -27.590813391     27.366071445     93.120354640
O       4.455885671     -1.276463590     -0.412414701
           3
  t=       191.50000    9    5
H     -37.562309976     -8.624127425    -86.824931525
H     -27.627871404     27.402788067     93.245245418
O       4.461409113     -1.278046877     -0.412922773
           3
  t=       191.75000    9    5
H     -37.612913123     -8.635715790    -86.941759801
H     -27.664929655     27.439504964     93.370137181
O       4.466932598     -1.279630175     -0.413430839
           3
  t=       192.00000    9    5
H     -37.663516687     -8.647304275    -87.058589156
H     -27.701988144     27.476222137     93.495029928
O       4.472456123     -1.281213482     -0.413938898
           3
  t=       192.25000    9    5
H     -37.714120667     -8.658892881    -87.175419587
H     -27.739046870     27.512939583     93.619923657
O       4.477979690     -1.282796798     -0.414446952
           3
  t=       192.50000    9    5
H     -37.764725062     -8.670481606    -87.292251090
H     -27.776105834     27.549657303     93.744818364
O       4.483503298     -1.284380125     -0.414955000
           3
  t=       192.75000    9    5
H     -37.815329872     -8.682070450    -87.409083663
H     -27.813165033     27.586375295     93.869714046
O       4.489026946     -1.285963461     -0.415463042
           3
  t=       193.00000    9    5
H     -37.865935093     -8.693659413    -87.525917302
H     -27.850224469     27.623093559     93.994610702
O       4.494550636     -1.287546807     -0.415971078
           3
  t=       193.25000    9    5
H     -37.916540727     -8.705248495    -87.642752006
H     -27.887284139     27.659812094     94.119508329
O       4.500074366     -1.289130162     -0.416479109
           3
  t=       193.50000    9    5
H     -37.967146771     -8.716837695    -87.759587772
H     -27.924344043     27.696530900     94.244406924
O       4.505598137     -1.290713527     -0.416987133
           3
  t=       193.75000    9    5
H     -38.017753224     -8.728427014    -87.876424595
H     -27.961404181     27.733249976     94.369306484
O       4.511121949     -1.292296902     -0.417495152
           3
  t=       194.00000    9    5
H     -38.068360086     -8.740016450    -87.993262474
H     -27.998464552     27.769969320     94.494207007
O       4.516645800     -1.293880286     -0.418003164
           3
  t=       194.25000    9    5
H     -38.118967355     -8.751606004    -88.110101407
H     -28.035525155     27.806688933     94.619108491
O       4.522169693     -1.295463679     -0.418511171
           3
  t=       194.50000    9    5
H     -38.169575030     -8.763195675    -88.226941389
H     -28.072585990     27.843408814     94.744010933
O       4.527693625     -1.297047082     -0.419019172
           3
  t=       194.75000    9    5
H     -38.220183111     -8.774785463    -88.343782418
H     -28.109647057     27.880128961     94.868914330
O       4.533217597     -1.298630495     -0.419527167
           3
  t=       195.00000    9    5
H     -38.270791595     -8.786375367    -88.460624492
H     -28.146708354     27.916849375     94.993818680
O       4.538741610     -1.300213917     -0.420035157
           3
  t=       195.25000    9    5
H     -38.321400482     -8.797965387    -88.577467608
H     -28.183769881     27.953570054     95.118723980
O       4.544265662     -1.301797348     -0.420543141
           3
  t=       195.50000    9    5
H     -38.372009772     -8.809555524    -88.694311763
H     -28.220831637     27.990290998     95.243630228
O       4.549789754     -1.303380789     -0.421051119
           3
  t=       195.75000    9    5
H     -38.422619462     -8.821145776    -88.811156954
H     -28.257893622     28.027012206     95.368537422
O       4.555313886     -1.304964239     -0.421559091
           3
  t=       196.00000    9    5
H     -38.473229551     -8.832736143    -88.928003179
H     -28.294955836     28.063733678     95.493445558
O       4.560838057     -1.306547698     -0.422067057
           3
  t=       196.25000    9    5
H     -38.523840040     -8.844326625    -89.044850434
H     -28.332018277     28.100455412     95.618354635
O       4.566362268     -1.308131167     -0.422575018
           3
  t=       196.50000    9    5
H     -38.574450926     -8.855917222    -89.161698718
H     -28.369080944     28.137177409     95.743264650
O       4.571886518     -1.309714645     -0.423082973
           3
  t=       196.75000    9    5
H     -38.625062209     -8.867507934    -89.278548027
H     -28.406143839     28.173899666     95.868175601
O       4.577410808     -1.311298132     -0.423590923
           3
  t=       197.00000    9    5
H     -38.675673888     -8.879098759    -89.395398359
H     -28.443206959     28.210622185     95.993087485
O       4.582935136     -1.312881629     -0.424098867
           3
  t=       197.25000    9    5
H     -38.726285961     -8.890689699    -89.512249711
H     -28.480270304     28.247344963     96.118000299
O       4.588459504     -1.314465135     -0.424606805
           3
  t=       197.50000    9    5
H     -38.776898427     -8.902280752    -89.629102081
H     -28.517333874     28.284068001     96.242914042
O       4.593983910     -1.316048650     -0.425114738
           3
  t=       197.75000    9    5
H     -38.827511286     -8.913871918    -89.745955465
H     -28.554397668     28.320791298     96.367828711
O       4.599508356     -1.317632174     -0.425622665
           3
  t=       198.00000    9    5
H     -38.878124537     -8.925463197    -89.862809862
H     -28.591461685     28.357514852     96.492744303
O       4.605032840     -1.319215707     -0.426130586
           3
  t=       198.25000    9    5
H     -38.928738178     -8.937054589    -89.979665268
H     -28.628525925     28.394238664     96.617660816
O       4.610557363     -1.320799249     -0.426638502
           3
  t=       198.50000    9    5
H     -38.979352209     -8.948646093    -90.096521681
H     -28.665590388     28.430962732     96.742578248
O       4.616081924     -1.322382801     -0.427146412
           3
  t=       198.75000    9    5
H     -39.029966628     -8.960237709    -90.213379099
H     -28.702655072     28.467687057     96.867496596
O       4.621606524     -1.323966361     -0.427654317
           3
  t=       199.00000    9    5
H     -39.080581434     -8.971829437    -90.330237518
H     -28.739719977     28.504411637     96.992415859
O       4.627131162     -1.325549931     -0.428162216
           3
  t=       199.25000    9    5
H     -39.131196627     -8.983421277    -90.447096937
H     -28.776785103     28.541136471     97.117336033
O       4.632655839     -1.327133509     -0.428670110
           3
  t=       199.50000    9    5
H     -39.181812205     -8.995013227    -90.563957352
H     -28.813850449     28.577861560     97.242257116
O       4.638180553     -1.328717097     -0.429177998
           3
  t=       199.75000    9    5
H     -39.232428168     -9.006605289    -90.680818761
H     -28.850916014     28.614586901     97.367179107
O       4.643705306     -1.330300693     -0.429685881
           3
  t=       200.00000    9    5
H     -39.283044514     -9.018197461    -90.797681161
H     -28.887981798     28.651312496     97.492102002
O       4.649230096     -1.331884299     -0.430193758
